AlCu                                    
   1.0000000000000000     
    12.1197733607601492    0.0000000000000000    0.0086536764398046
     0.0000000000000000    4.1047318575138929    0.0000000000000000
    -3.9737114122694983    0.0000000000000000    5.7417068442840291
   Al   Cu
    10    10
Direct
  0.5000000000000000 -0.0000000000000000  0.5000000000000000
  0.1555475144533819 -0.0000000000000000  0.4612210368639907
  0.8444524705466132 -0.0000000000000000  0.5387789341360103
  0.8775581030821852  0.5000000000000000  0.9956382630515256
  0.1224418899178106  0.5000000000000000  0.0043617129484723
  0.0000000000000000  0.5000000000000000  0.5000000000000000
  0.6555475294533868  0.5000000000000000  0.4612210368639907
  0.3444525005466159  0.5000000000000000  0.5387789341360103
  0.3775581030821923 -0.0000000000000000  0.9956382630515256
  0.6224418969178148 -0.0000000000000000  0.0043617129484723
  0.0000000000000000 -0.0000000000000000  0.0000000000000000
  0.2580761603697947  0.0000000000000000  0.2421216977836357
  0.7419238096302098  0.0000000000000000  0.7578782872163664
  0.1088058209411073  0.0000000000000000  0.7721892219920717
  0.8911941940588903  0.0000000000000000  0.2278107480079330
  0.5000000000000000  0.5000000000000000  0.0000000000000000
  0.7580761903697902  0.5000000000000000  0.2421216977836357
  0.2419238396302053  0.5000000000000000  0.7578782872163664
  0.6088058059411097  0.5000000000000000  0.7721892219920717
  0.3911941940588904  0.5000000000000000  0.2278107480079330

  0.00000000E+00  0.00000000E+00  0.00000000E+00
  0.00000000E+00  0.00000000E+00  0.00000000E+00
  0.00000000E+00  0.00000000E+00  0.00000000E+00
  0.00000000E+00  0.00000000E+00  0.00000000E+00
  0.00000000E+00  0.00000000E+00  0.00000000E+00
  0.00000000E+00  0.00000000E+00  0.00000000E+00
  0.00000000E+00  0.00000000E+00  0.00000000E+00
  0.00000000E+00  0.00000000E+00  0.00000000E+00
  0.00000000E+00  0.00000000E+00  0.00000000E+00
  0.00000000E+00  0.00000000E+00  0.00000000E+00
  0.00000000E+00  0.00000000E+00  0.00000000E+00
  0.00000000E+00  0.00000000E+00  0.00000000E+00
  0.00000000E+00  0.00000000E+00  0.00000000E+00
  0.00000000E+00  0.00000000E+00  0.00000000E+00
  0.00000000E+00  0.00000000E+00  0.00000000E+00
  0.00000000E+00  0.00000000E+00  0.00000000E+00
  0.00000000E+00  0.00000000E+00  0.00000000E+00
  0.00000000E+00  0.00000000E+00  0.00000000E+00
  0.00000000E+00  0.00000000E+00  0.00000000E+00
  0.00000000E+00  0.00000000E+00  0.00000000E+00
