AlCu                                    
   1.0000000000000000     
    12.1197733607601492    0.0605988668038007    0.0085679964750541
     0.0205236592875695    4.1457791760890315    0.0000000000000000
    -3.9737114122694983   -0.0198685570613475    5.6848582616673555
   Al   Cu
    10    10
Direct
  0.5000000000000000  0.0000000000000000  0.5000000000000000
  0.1565056540761038 -0.0000659423390980  0.4624086276435628
  0.8434943309238914  0.0000659423390980  0.5375913433564381
  0.8781448383984055  0.5003218623119294  0.9955377262810319
  0.1218551546015903  0.4996781376880706  0.0044622497189660
  0.0000000000000000  0.5000000000000000  0.5000000000000000
  0.6565056690761086  0.4999340576609020  0.4624086276435628
  0.3434943609238940  0.5000659423390981  0.5375913433564381
  0.3781448383984126  0.0003218623119294  0.9955377262810319
  0.6218551616015945 -0.0003218623119294  0.0044622497189660
  0.0000000000000000  0.0000000000000000  0.0000000000000000
  0.2578519166076594 -0.0000783053205622  0.2408173193968597
  0.7421480533923452  0.0000783053205622  0.7591826656031426
  0.1082229778414903 -0.0000499526125097  0.7710495955656675
  0.8917770371585075  0.0000499526125097  0.2289503744343370
  0.5000000000000000  0.5000000000000000  0.0000000000000000
  0.7578519466076548  0.4999216946794379  0.2408173193968597
  0.2421480833923406  0.5000783053205623  0.7591826656031426
  0.6082229628414925  0.4999500473874903  0.7710495955656675
  0.3917770371585074  0.5000499526125097  0.2289503744343370

  0.00000000E+00  0.00000000E+00  0.00000000E+00
  0.00000000E+00  0.00000000E+00  0.00000000E+00
  0.00000000E+00  0.00000000E+00  0.00000000E+00
  0.00000000E+00  0.00000000E+00  0.00000000E+00
  0.00000000E+00  0.00000000E+00  0.00000000E+00
  0.00000000E+00  0.00000000E+00  0.00000000E+00
  0.00000000E+00  0.00000000E+00  0.00000000E+00
  0.00000000E+00  0.00000000E+00  0.00000000E+00
  0.00000000E+00  0.00000000E+00  0.00000000E+00
  0.00000000E+00  0.00000000E+00  0.00000000E+00
  0.00000000E+00  0.00000000E+00  0.00000000E+00
  0.00000000E+00  0.00000000E+00  0.00000000E+00
  0.00000000E+00  0.00000000E+00  0.00000000E+00
  0.00000000E+00  0.00000000E+00  0.00000000E+00
  0.00000000E+00  0.00000000E+00  0.00000000E+00
  0.00000000E+00  0.00000000E+00  0.00000000E+00
  0.00000000E+00  0.00000000E+00  0.00000000E+00
  0.00000000E+00  0.00000000E+00  0.00000000E+00
  0.00000000E+00  0.00000000E+00  0.00000000E+00
  0.00000000E+00  0.00000000E+00  0.00000000E+00
