AlCu                                    
   1.0000000000000000     
    12.1198590407248989    0.0000000000000000    0.1297657300826556
     0.0000000000000000    4.1047318575138929    0.0000000000000000
    -3.9168628296528247    0.0000000000000000    5.6451211475446605
   Al   Cu
    10    10
Direct
  0.5000000000000000  0.0000000000000000  0.5000000000000000
  0.1559166668009255 -0.0000000000000000  0.4606756418082213
  0.8440833181990695  0.0000000000000000  0.5393243291917800
  0.8768128889818001  0.5000000000000000  0.9919148145784509
  0.1231871040181959  0.5000000000000000  0.0080851614215471
 -0.0000000000000000  0.5000000000000000  0.5000000000000000
  0.6559166818009305  0.5000000000000000  0.4606756418082213
  0.3440833481990721  0.5000000000000000  0.5393243291917800
  0.3768128889818071 -0.0000000000000000  0.9919148145784509
  0.6231871110181999  0.0000000000000000  0.0080851614215471
 -0.0000000000000000  0.0000000000000000 -0.0000000000000000
  0.2591831308604352  0.0000000000000000  0.2411041364318186
  0.7408168391395693 -0.0000000000000000  0.7588958485681837
  0.1075798684028636 -0.0000000000000000  0.7706434434212521
  0.8924201465971341  0.0000000000000000  0.2293565265787524
  0.5000000000000000  0.5000000000000000 -0.0000000000000000
  0.7591831608604307  0.5000000000000000  0.2411041364318186
  0.2408168691395648  0.5000000000000000  0.7588958485681837
  0.6075798534028659  0.5000000000000000  0.7706434434212521
  0.3924201465971341  0.5000000000000000  0.2293565265787524

  0.00000000E+00  0.00000000E+00  0.00000000E+00
  0.00000000E+00  0.00000000E+00  0.00000000E+00
  0.00000000E+00  0.00000000E+00  0.00000000E+00
  0.00000000E+00  0.00000000E+00  0.00000000E+00
  0.00000000E+00  0.00000000E+00  0.00000000E+00
  0.00000000E+00  0.00000000E+00  0.00000000E+00
  0.00000000E+00  0.00000000E+00  0.00000000E+00
  0.00000000E+00  0.00000000E+00  0.00000000E+00
  0.00000000E+00  0.00000000E+00  0.00000000E+00
  0.00000000E+00  0.00000000E+00  0.00000000E+00
  0.00000000E+00  0.00000000E+00  0.00000000E+00
  0.00000000E+00  0.00000000E+00  0.00000000E+00
  0.00000000E+00  0.00000000E+00  0.00000000E+00
  0.00000000E+00  0.00000000E+00  0.00000000E+00
  0.00000000E+00  0.00000000E+00  0.00000000E+00
  0.00000000E+00  0.00000000E+00  0.00000000E+00
  0.00000000E+00  0.00000000E+00  0.00000000E+00
  0.00000000E+00  0.00000000E+00  0.00000000E+00
  0.00000000E+00  0.00000000E+00  0.00000000E+00
  0.00000000E+00  0.00000000E+00  0.00000000E+00
