Al2O3_R-3cH                             
   1.0000000000000000     
     4.8027765869102383   -0.0000000000005961   -0.0000000000000030
    -2.4013882935061432    4.2009197983459723    0.0207966326650791
     0.0000000000000000    0.0655131324531951   13.1026264906390235
   Al   O 
    12    18
Direct
  0.0010518563849014  0.0015063914070505  0.3524209623499701
 -0.0010518563849014 -0.0015063914070505  0.6475790076500346
 -0.0004545350221490 -0.0015063914070505  0.1475790376500299
  0.0004545350221490  0.0015063914070505  0.8524209923499654
  0.6677185433849043  0.3348397344070501  0.6857543053499696
  0.6656148306151014  0.3318269515929492  0.9809123806500367
  0.6662121519778536  0.3318269515929492  0.4809123806500366
  0.6671212220221522  0.3348397344070501  0.1857542463499684
  0.3343851993849009  0.6681730784070536  0.0190876193499634
  0.3322814866150983  0.6651602955929521  0.3142456946500303
  0.3328788079778506  0.6651602955929521  0.8142456946500304
  0.3337878780221487  0.6681730784070536  0.5190876193499633
  0.3059872451199692  0.0000000000000000  0.2500000000000000
  0.6940127548800306  0.0000000000000000  0.7500000000000000
 -0.0003262861385314  0.3056880590375363  0.2502299787248316
  0.0003262861385314  0.6943119409624637  0.7497700212751683
  0.6939856548239322  0.6943119409624637  0.2497700212751682
  0.3060143451760677  0.3056880590375363  0.7502299787248317
  0.9726539321199723  0.3333333429999996  0.5833333129999971
  0.3606794118800312  0.3333333429999996  0.0833333360000026
  0.6663404008614715  0.6390213730375370  0.5835632917248288
  0.6669929731385342  0.0276452749624661  0.0831033572751709
  0.3606523118239326  0.0276452749624661  0.5831033342751655
  0.9726810321760707  0.6390213730375370  0.0835633147248343
  0.6393205591199702  0.6666666870000029  0.9166666870000029
  0.0273460888800332  0.6666666870000029  0.4166666570000004
  0.3330070568614681  0.9723547460375391  0.9168966657248345
  0.3336596291385311  0.3609785979624641  0.4164366782751688
  0.0273189888239347  0.3609785979624641  0.9164367082751712
  0.6393476591760686  0.9723547460375391  0.4168966357248320

  0.00000000E+00  0.00000000E+00  0.00000000E+00
  0.00000000E+00  0.00000000E+00  0.00000000E+00
  0.00000000E+00  0.00000000E+00  0.00000000E+00
  0.00000000E+00  0.00000000E+00  0.00000000E+00
  0.00000000E+00  0.00000000E+00  0.00000000E+00
  0.00000000E+00  0.00000000E+00  0.00000000E+00
  0.00000000E+00  0.00000000E+00  0.00000000E+00
  0.00000000E+00  0.00000000E+00  0.00000000E+00
  0.00000000E+00  0.00000000E+00  0.00000000E+00
  0.00000000E+00  0.00000000E+00  0.00000000E+00
  0.00000000E+00  0.00000000E+00  0.00000000E+00
  0.00000000E+00  0.00000000E+00  0.00000000E+00
  0.00000000E+00  0.00000000E+00  0.00000000E+00
  0.00000000E+00  0.00000000E+00  0.00000000E+00
  0.00000000E+00  0.00000000E+00  0.00000000E+00
  0.00000000E+00  0.00000000E+00  0.00000000E+00
  0.00000000E+00  0.00000000E+00  0.00000000E+00
  0.00000000E+00  0.00000000E+00  0.00000000E+00
  0.00000000E+00  0.00000000E+00  0.00000000E+00
  0.00000000E+00  0.00000000E+00  0.00000000E+00
  0.00000000E+00  0.00000000E+00  0.00000000E+00
  0.00000000E+00  0.00000000E+00  0.00000000E+00
  0.00000000E+00  0.00000000E+00  0.00000000E+00
  0.00000000E+00  0.00000000E+00  0.00000000E+00
  0.00000000E+00  0.00000000E+00  0.00000000E+00
  0.00000000E+00  0.00000000E+00  0.00000000E+00
  0.00000000E+00  0.00000000E+00  0.00000000E+00
  0.00000000E+00  0.00000000E+00  0.00000000E+00
  0.00000000E+00  0.00000000E+00  0.00000000E+00
  0.00000000E+00  0.00000000E+00  0.00000000E+00
