Si8                                     
   1.0000000000000000     
     5.4887981085990063    0.0271722678643515    0.0000000000000000
     0.0271722678643515    5.4344535728703036    0.0000000000000000
     0.0000000000000000    0.0000000000000000    5.4344535728703036
   Si
     8
Direct
 -0.0000000000000000 -0.0000000000000000  0.0006624875532037
  0.7500000000000000  0.7500000000000000  0.2493375124467963
  0.0000000000000000  0.5000000000000000  0.5006624875532037
  0.7500000000000000  0.2500000000000000  0.7493375124467963
  0.5000000000000000 -0.0000000000000000  0.5006624875532037
  0.2500000000000000  0.7500000000000000  0.7493375124467963
  0.5000000000000000  0.5000000000000000  0.0006624875532037
  0.2500000000000000  0.2500000000000000  0.2493375124467963

  0.00000000E+00  0.00000000E+00  0.00000000E+00
  0.00000000E+00  0.00000000E+00  0.00000000E+00
  0.00000000E+00  0.00000000E+00  0.00000000E+00
  0.00000000E+00  0.00000000E+00  0.00000000E+00
  0.00000000E+00  0.00000000E+00  0.00000000E+00
  0.00000000E+00  0.00000000E+00  0.00000000E+00
  0.00000000E+00  0.00000000E+00  0.00000000E+00
  0.00000000E+00  0.00000000E+00  0.00000000E+00
