TiSi2                                   
   1.0000000000000000     
     4.8107531746015759   -0.0481075317460158    0.0000000000000000
    -0.0827856607074444    8.2785660707444446    0.0000000000000000
     0.0000000000000000    0.0000000000000000    8.3939459790889170
   Ti   Si
     8    16
Direct
 -0.0000000000000000 -0.0000000000000000  0.0009063277161339
  0.7500000000000000  0.7500000000000000  0.2490936722838661
 -0.0000000000000000  0.5000000000000000  0.5009063277161339
  0.7500000000000000  0.2500000000000000  0.7490936722838661
  0.5000000000000000 -0.0000000000000000  0.5009063277161339
  0.2500000000000000  0.7500000000000000  0.7490936722838661
  0.5000000000000000  0.5000000000000000  0.0009063277161339
  0.2500000000000000  0.2500000000000000  0.2490936722838661
 -0.0004284945928729  0.3360127959505311  0.0000155096083354
  0.0004284945928729  0.6639872340494712  0.0000155096083354
  0.7495715054071274  0.0860127809505264  0.2499844903916646
  0.7504284945928726  0.4139872040494689  0.2499844903916646
 -0.0004284945928729  0.8360127659505288  0.5000155096083354
  0.0004284945928729  0.1639872190494736  0.5000155096083354
  0.7495715054071274  0.5860127659505288  0.7499844903916646
  0.7504284945928726  0.9139872340494712  0.7499844903916646
  0.4995715054071269  0.3360127959505311  0.5000155096083354
  0.5004284945928726  0.6639872340494712  0.5000155096083354
  0.2495715054071271  0.0860127809505264  0.7499844903916646
  0.2504284945928731  0.4139872040494689  0.7499844903916646
  0.4995715054071269  0.8360127659505288  0.0000155096083354
  0.5004284945928726  0.1639872190494736  0.0000155096083354
  0.2495715054071271  0.5860127659505288  0.2499844903916646
  0.2504284945928731  0.9139872340494712  0.2499844903916646

  0.00000000E+00  0.00000000E+00  0.00000000E+00
  0.00000000E+00  0.00000000E+00  0.00000000E+00
  0.00000000E+00  0.00000000E+00  0.00000000E+00
  0.00000000E+00  0.00000000E+00  0.00000000E+00
  0.00000000E+00  0.00000000E+00  0.00000000E+00
  0.00000000E+00  0.00000000E+00  0.00000000E+00
  0.00000000E+00  0.00000000E+00  0.00000000E+00
  0.00000000E+00  0.00000000E+00  0.00000000E+00
  0.00000000E+00  0.00000000E+00  0.00000000E+00
  0.00000000E+00  0.00000000E+00  0.00000000E+00
  0.00000000E+00  0.00000000E+00  0.00000000E+00
  0.00000000E+00  0.00000000E+00  0.00000000E+00
  0.00000000E+00  0.00000000E+00  0.00000000E+00
  0.00000000E+00  0.00000000E+00  0.00000000E+00
  0.00000000E+00  0.00000000E+00  0.00000000E+00
  0.00000000E+00  0.00000000E+00  0.00000000E+00
  0.00000000E+00  0.00000000E+00  0.00000000E+00
  0.00000000E+00  0.00000000E+00  0.00000000E+00
  0.00000000E+00  0.00000000E+00  0.00000000E+00
  0.00000000E+00  0.00000000E+00  0.00000000E+00
  0.00000000E+00  0.00000000E+00  0.00000000E+00
  0.00000000E+00  0.00000000E+00  0.00000000E+00
  0.00000000E+00  0.00000000E+00  0.00000000E+00
  0.00000000E+00  0.00000000E+00  0.00000000E+00
