Sn4                                     
   1.0000000000000000     
     5.9442971403929024    0.0000000000000000    0.0000000000000000
     0.0000000000000000    5.8848541689889728   -0.0594429714039290
     0.0000000000000000   -0.0321204891903197    3.1478079406513335
   Sn
     4
Direct
 -0.0000000242614672  0.0007841004680096  0.5106662279748823
  0.5000000250507007 -0.0007840638078606  0.7393336987370088
  0.4999999752653407  0.5007840702044734  0.0106663494169107
  0.0000000239454258  0.4992158931353779  0.2393337238711983

  0.00000000E+00  0.00000000E+00  0.00000000E+00
  0.00000000E+00  0.00000000E+00  0.00000000E+00
  0.00000000E+00  0.00000000E+00  0.00000000E+00
  0.00000000E+00  0.00000000E+00  0.00000000E+00
