Sn4                                     
   1.0000000000000000     
     5.9442971403929024    0.0000000000000000    0.0000000000000000
     0.0000000000000000    5.9145756546909380   -0.0297214857019645
     0.0000000000000000   -0.0160602445951599    3.1799284298416532
   Sn
     4
Direct
 -0.0000000000000000  0.0003732147184761  0.5056027128179273
  0.5000000000000000 -0.0003732147184761  0.7443972871820727
  0.5000000000000000  0.5003732147184761  0.0056027128179271
 -0.0000000000000000  0.4996267852815239  0.2443972871820730

  0.00000000E+00  0.00000000E+00  0.00000000E+00
  0.00000000E+00  0.00000000E+00  0.00000000E+00
  0.00000000E+00  0.00000000E+00  0.00000000E+00
  0.00000000E+00  0.00000000E+00  0.00000000E+00
