AlCu                                    
   1.0000000000000000     
    12.1197305207777735    0.0000000000000000   -0.0520308703287466
     0.0000000000000000    4.1047318575138929    0.0000000000000000
    -4.0021357035778351    0.0000000000000000    5.7047268187287035
   Al   Cu
    10    10
Direct
  0.5000000000000000 -0.0000000000000000  0.5000000000000000
  0.1558296084204287  0.0000000000000000  0.4616688417653804
  0.8441703765795665  0.0000000000000000  0.5383311292346210
  0.8787423589935083  0.5000000000000000  0.9971676362312335
  0.1212576340064877  0.5000000000000000  0.0028323397687644
  0.0000000000000000  0.5000000000000000  0.5000000000000000
  0.6558296234204335  0.5000000000000000  0.4616688417653804
  0.3441704065795690  0.5000000000000000  0.5383311292346210
  0.3787423589935153 -0.0000000000000000  0.9971676362312335
  0.6212576410064917  0.0000000000000000  0.0028323397687644
  0.0000000000000000 -0.0000000000000000 -0.0000000000000000
  0.2575010354016730 -0.0000000000000000  0.2420373445946446
  0.7424989345983320 -0.0000000000000000  0.7579626404053578
  0.1092669283868278  0.0000000000000000  0.7722270796718205
  0.8907330866131699  0.0000000000000000  0.2277728903281840
  0.5000000000000000  0.5000000000000000 -0.0000000000000000
  0.7575010654016680  0.5000000000000000  0.2420373445946446
  0.2424989645983272  0.5000000000000000  0.7579626404053578
  0.6092669133868301  0.5000000000000000  0.7722270796718205
  0.3907330866131699  0.5000000000000000  0.2277728903281840

  0.00000000E+00  0.00000000E+00  0.00000000E+00
  0.00000000E+00  0.00000000E+00  0.00000000E+00
  0.00000000E+00  0.00000000E+00  0.00000000E+00
  0.00000000E+00  0.00000000E+00  0.00000000E+00
  0.00000000E+00  0.00000000E+00  0.00000000E+00
  0.00000000E+00  0.00000000E+00  0.00000000E+00
  0.00000000E+00  0.00000000E+00  0.00000000E+00
  0.00000000E+00  0.00000000E+00  0.00000000E+00
  0.00000000E+00  0.00000000E+00  0.00000000E+00
  0.00000000E+00  0.00000000E+00  0.00000000E+00
  0.00000000E+00  0.00000000E+00  0.00000000E+00
  0.00000000E+00  0.00000000E+00  0.00000000E+00
  0.00000000E+00  0.00000000E+00  0.00000000E+00
  0.00000000E+00  0.00000000E+00  0.00000000E+00
  0.00000000E+00  0.00000000E+00  0.00000000E+00
  0.00000000E+00  0.00000000E+00  0.00000000E+00
  0.00000000E+00  0.00000000E+00  0.00000000E+00
  0.00000000E+00  0.00000000E+00  0.00000000E+00
  0.00000000E+00  0.00000000E+00  0.00000000E+00
  0.00000000E+00  0.00000000E+00  0.00000000E+00
