TiSi2                                   
   1.0000000000000000     
     4.8588607063475919    0.0000000000000000    0.0000000000000000
     0.0000000000000000    8.3613517314518884    0.0827856607074444
     0.0000000000000000    0.0856525099907032    8.5652509990703241
   Ti   Si
     8    16
Direct
 -0.0016842208474252  0.0000000000000000  0.0000000000000000
  0.7516842208474250  0.7500000000000000  0.2500000000000000
 -0.0016842208474252  0.5000000000000000  0.5000000000000000
  0.7516842208474250  0.2500000000000000  0.7500000000000000
  0.4983157791525747  0.0000000000000000  0.5000000000000000
  0.2516842208474253  0.7500000000000000  0.7500000000000000
  0.4983157791525747  0.5000000000000000  0.0000000000000000
  0.2516842208474253  0.2500000000000000  0.2500000000000000
 -0.0013914274641804  0.3365328883038818 -0.0002663893956831
 -0.0013914274641804  0.6634671416961209  0.0002663893956831
  0.7513914274641805  0.0865328733038769  0.2497336106043169
  0.7513914274641805  0.4134671116961182  0.2502663893956833
 -0.0013914274641804  0.8365328583038791  0.4997336106043167
 -0.0013914274641804  0.1634671266961231  0.5002663893956832
  0.7513914274641805  0.5865328583038791  0.7497336106043168
  0.7513914274641805  0.9134671416961209  0.7502663893956832
  0.4986085725358197  0.3365328883038818  0.4997336106043167
  0.4986085725358197  0.6634671416961209  0.5002663893956832
  0.2513914274641803  0.0865328733038769  0.7497336106043168
  0.2513914274641803  0.4134671116961182  0.7502663893956832
  0.4986085725358197  0.8365328583038791 -0.0002663893956831
  0.4986085725358197  0.1634671266961231  0.0002663893956831
  0.2513914274641803  0.5865328583038791  0.2497336106043169
  0.2513914274641803  0.9134671416961209  0.2502663893956833

  0.00000000E+00  0.00000000E+00  0.00000000E+00
  0.00000000E+00  0.00000000E+00  0.00000000E+00
  0.00000000E+00  0.00000000E+00  0.00000000E+00
  0.00000000E+00  0.00000000E+00  0.00000000E+00
  0.00000000E+00  0.00000000E+00  0.00000000E+00
  0.00000000E+00  0.00000000E+00  0.00000000E+00
  0.00000000E+00  0.00000000E+00  0.00000000E+00
  0.00000000E+00  0.00000000E+00  0.00000000E+00
  0.00000000E+00  0.00000000E+00  0.00000000E+00
  0.00000000E+00  0.00000000E+00  0.00000000E+00
  0.00000000E+00  0.00000000E+00  0.00000000E+00
  0.00000000E+00  0.00000000E+00  0.00000000E+00
  0.00000000E+00  0.00000000E+00  0.00000000E+00
  0.00000000E+00  0.00000000E+00  0.00000000E+00
  0.00000000E+00  0.00000000E+00  0.00000000E+00
  0.00000000E+00  0.00000000E+00  0.00000000E+00
  0.00000000E+00  0.00000000E+00  0.00000000E+00
  0.00000000E+00  0.00000000E+00  0.00000000E+00
  0.00000000E+00  0.00000000E+00  0.00000000E+00
  0.00000000E+00  0.00000000E+00  0.00000000E+00
  0.00000000E+00  0.00000000E+00  0.00000000E+00
  0.00000000E+00  0.00000000E+00  0.00000000E+00
  0.00000000E+00  0.00000000E+00  0.00000000E+00
  0.00000000E+00  0.00000000E+00  0.00000000E+00
