TiSi2                                   
   1.0000000000000000     
     4.7866994087285679    0.0000000000000000    0.0240537658730079
     0.0000000000000000    8.3199589010981665    0.0000000000000000
     0.0428262549953516    0.0000000000000000    8.5652509990703241
   Ti   Si
     8    16
Direct
  0.0000000000000000 -0.0011053167825222 -0.0000000000000000
  0.7500000000000000  0.7511053167825222  0.2500000000000000
 -0.0000000000000000  0.4988946832174779  0.5000000000000000
  0.7500000000000000  0.2511053167825221  0.7500000000000000
  0.5000000000000000 -0.0011053167825222  0.5000000000000000
  0.2500000000000000  0.7511053167825222  0.7500000000000000
  0.5000000000000000  0.4988946832174779 -0.0000000000000000
  0.2500000000000000  0.2511053167825221  0.2500000000000000
  0.0000000000000000  0.3358577760946060 -0.0000000000000000
 -0.0000000000000000  0.6621802087881784  0.0000000000000000
  0.7500000000000000  0.0878198062118192  0.2500000000000000
  0.7500000000000000  0.4141422239053940  0.2500000000000000
 -0.0000000000000000  0.8358577460946036  0.5000000000000000
  0.0000000000000000  0.1621801937881808  0.5000000000000000
  0.7500000000000000  0.5878197912118216  0.7500000000000000
  0.7500000000000000  0.9141422539053964  0.7500000000000000
  0.5000000000000000  0.3358577760946060  0.5000000000000000
  0.5000000000000000  0.6621802087881784  0.5000000000000000
  0.2500000000000000  0.0878198062118192  0.7500000000000000
  0.2500000000000000  0.4141422239053940  0.7500000000000000
  0.5000000000000000  0.8358577460946036 -0.0000000000000000
  0.5000000000000000  0.1621801937881808  0.0000000000000000
  0.2500000000000000  0.5878197912118216  0.2500000000000000
  0.2500000000000000  0.9141422539053964  0.2500000000000000

  0.00000000E+00  0.00000000E+00  0.00000000E+00
  0.00000000E+00  0.00000000E+00  0.00000000E+00
  0.00000000E+00  0.00000000E+00  0.00000000E+00
  0.00000000E+00  0.00000000E+00  0.00000000E+00
  0.00000000E+00  0.00000000E+00  0.00000000E+00
  0.00000000E+00  0.00000000E+00  0.00000000E+00
  0.00000000E+00  0.00000000E+00  0.00000000E+00
  0.00000000E+00  0.00000000E+00  0.00000000E+00
  0.00000000E+00  0.00000000E+00  0.00000000E+00
  0.00000000E+00  0.00000000E+00  0.00000000E+00
  0.00000000E+00  0.00000000E+00  0.00000000E+00
  0.00000000E+00  0.00000000E+00  0.00000000E+00
  0.00000000E+00  0.00000000E+00  0.00000000E+00
  0.00000000E+00  0.00000000E+00  0.00000000E+00
  0.00000000E+00  0.00000000E+00  0.00000000E+00
  0.00000000E+00  0.00000000E+00  0.00000000E+00
  0.00000000E+00  0.00000000E+00  0.00000000E+00
  0.00000000E+00  0.00000000E+00  0.00000000E+00
  0.00000000E+00  0.00000000E+00  0.00000000E+00
  0.00000000E+00  0.00000000E+00  0.00000000E+00
  0.00000000E+00  0.00000000E+00  0.00000000E+00
  0.00000000E+00  0.00000000E+00  0.00000000E+00
  0.00000000E+00  0.00000000E+00  0.00000000E+00
  0.00000000E+00  0.00000000E+00  0.00000000E+00
