AlCu                                    
   1.0000000000000000     
    12.1197733607601492   -0.1211977336076015    0.0085679964750541
    -0.0410473185751389    4.0226372203636149    0.0000000000000000
    -3.9737114122694983    0.0397371141226950    5.6848582616673555
   Al   Cu
    10    10
Direct
  0.5000000000000000  0.0000000000000000  0.5000000000000000
  0.1544219194960190  0.0006820249159727  0.4588675476281497
  0.8455780655039764 -0.0006820249159727  0.5411324233718515
  0.8777848865028984  0.4994262944173878  0.9951706430331820
  0.1222151064970974  0.5005737055826123  0.0048293329668158
  0.0000000000000000  0.5000000000000000  0.5000000000000000
  0.6544219344960236  0.5006820249159728  0.4588675476281497
  0.3455780955039788  0.4993179750840272  0.5411324233718515
  0.3777848865029056 -0.0005737055826121  0.9951706430331820
  0.6222151134971016  0.0005737055826121  0.0048293329668158
  0.0000000000000000  0.0000000000000000  0.0000000000000000
  0.2583685820929694 -0.0002433439548774  0.2436284478266287
  0.7416313879070353  0.0002433439548774  0.7563715371733735
  0.1095498690275526  0.0001113246637709  0.7729146082775386
  0.8904501459724449 -0.0001113246637709  0.2270853617224661
  0.5000000000000000  0.5000000000000000  0.0000000000000000
  0.7583686120929647  0.4997566560451226  0.2436284478266287
  0.2416314179070305  0.5002433439548774  0.7563715371733735
  0.6095498540275551  0.5001113246637710  0.7729146082775386
  0.3904501459724451  0.4998886753362291  0.2270853617224661

  0.00000000E+00  0.00000000E+00  0.00000000E+00
  0.00000000E+00  0.00000000E+00  0.00000000E+00
  0.00000000E+00  0.00000000E+00  0.00000000E+00
  0.00000000E+00  0.00000000E+00  0.00000000E+00
  0.00000000E+00  0.00000000E+00  0.00000000E+00
  0.00000000E+00  0.00000000E+00  0.00000000E+00
  0.00000000E+00  0.00000000E+00  0.00000000E+00
  0.00000000E+00  0.00000000E+00  0.00000000E+00
  0.00000000E+00  0.00000000E+00  0.00000000E+00
  0.00000000E+00  0.00000000E+00  0.00000000E+00
  0.00000000E+00  0.00000000E+00  0.00000000E+00
  0.00000000E+00  0.00000000E+00  0.00000000E+00
  0.00000000E+00  0.00000000E+00  0.00000000E+00
  0.00000000E+00  0.00000000E+00  0.00000000E+00
  0.00000000E+00  0.00000000E+00  0.00000000E+00
  0.00000000E+00  0.00000000E+00  0.00000000E+00
  0.00000000E+00  0.00000000E+00  0.00000000E+00
  0.00000000E+00  0.00000000E+00  0.00000000E+00
  0.00000000E+00  0.00000000E+00  0.00000000E+00
  0.00000000E+00  0.00000000E+00  0.00000000E+00
