Sn4                                     
   1.0000000000000000     
     5.9442971403929024    0.0000000000000000    0.0000000000000000
     0.0000000000000000    5.9740186260948667    0.0297214857019645
     0.0000000000000000    0.0160602445951599    3.2441694082222927
   Sn
     4
Direct
 -0.0000000000000000 -0.0003809348824826  0.4943983938755110
  0.5000000000000000  0.0003809348824826  0.7556016061244891
  0.5000000000000000  0.4996190651175175 -0.0056016061244889
  0.0000000000000000  0.5003809348824824  0.2556016061244890

  0.00000000E+00  0.00000000E+00  0.00000000E+00
  0.00000000E+00  0.00000000E+00  0.00000000E+00
  0.00000000E+00  0.00000000E+00  0.00000000E+00
  0.00000000E+00  0.00000000E+00  0.00000000E+00
