AlCu                                    
   1.0000000000000000     
    12.3621688279753528    0.0000856799647505    0.0085679964750541
     0.0000000000000000    4.1047318575138929    0.0410473185751389
    -4.0531856405148883    0.0568485826166736    5.6848582616673555
   Al   Cu
    10    10
Direct
  0.5000000000000000 -0.0000000000000000  0.5000000000000000
  0.1548697842809821  0.0037150316960761  0.4600608083612407
  0.8451302007190129 -0.0037150316960761  0.5399391626387605
  0.8784897334008115  0.5004274745786820  0.9951044096129891
  0.1215102595991843  0.4995725254213181  0.0048955663870088
  0.0000000000000000  0.5000000000000000  0.5000000000000000
  0.6548697992809871  0.5037150316960761  0.4600608083612407
  0.3451302307190156  0.4962849683039239  0.5399391626387605
  0.3784897334008188  0.0004274745786820  0.9951044096129891
  0.6215102665991885 -0.0004274745786820  0.0048955663870088
  0.0000000000000000 -0.0000000000000000  0.0000000000000000
  0.2581691049749140 -0.0019829583639578  0.2439590015472854
  0.7418308650250907  0.0019829583639578  0.7560409834527170
  0.1096894922087693  0.0000311602753514  0.7728147535907924
  0.8903105227912286 -0.0000311602753514  0.2271852164092122
  0.5000000000000000  0.5000000000000000  0.0000000000000000
  0.7581691349749093  0.4980170416360421  0.2439590015472854
  0.2418308950250862  0.5019829583639578  0.7560409834527170
  0.6096894772087714  0.5000311602753514  0.7728147535907924
  0.3903105227912284  0.4999688397246488  0.2271852164092122

  0.00000000E+00  0.00000000E+00  0.00000000E+00
  0.00000000E+00  0.00000000E+00  0.00000000E+00
  0.00000000E+00  0.00000000E+00  0.00000000E+00
  0.00000000E+00  0.00000000E+00  0.00000000E+00
  0.00000000E+00  0.00000000E+00  0.00000000E+00
  0.00000000E+00  0.00000000E+00  0.00000000E+00
  0.00000000E+00  0.00000000E+00  0.00000000E+00
  0.00000000E+00  0.00000000E+00  0.00000000E+00
  0.00000000E+00  0.00000000E+00  0.00000000E+00
  0.00000000E+00  0.00000000E+00  0.00000000E+00
  0.00000000E+00  0.00000000E+00  0.00000000E+00
  0.00000000E+00  0.00000000E+00  0.00000000E+00
  0.00000000E+00  0.00000000E+00  0.00000000E+00
  0.00000000E+00  0.00000000E+00  0.00000000E+00
  0.00000000E+00  0.00000000E+00  0.00000000E+00
  0.00000000E+00  0.00000000E+00  0.00000000E+00
  0.00000000E+00  0.00000000E+00  0.00000000E+00
  0.00000000E+00  0.00000000E+00  0.00000000E+00
  0.00000000E+00  0.00000000E+00  0.00000000E+00
  0.00000000E+00  0.00000000E+00  0.00000000E+00
