AlCu                
   1.000000000000000
   11.877377893544946       -8.5679964750541001E-005   8.5679964750540998E-003
   0.0000000000000000        4.1047318575138929       -4.1047318575138929E-002
  -3.8942371840241083       -5.6848582616673554E-002   5.6848582616673555     
   Al   Cu                                                                      
    10    10                                                                    
Direct                                                                          
  0.50000000000000000        0.0000000000000000       0.50000000000000000     
  0.15587366008861120       -0.0000000000000000       0.46137373867870057     
  0.84412632491138406        0.0000000000000000       0.53862623232130069     
  0.87805559276920420       0.50000000000000000       0.99541334430579875     
  0.12194440023079869       0.50000000000000000        4.5866316941991997E-003
  -0.0000000000000000       0.50000000000000000       0.50000000000000000     
  0.65587367508861594       0.50000000000000000       0.46137373867870057     
  0.34412635491138638       0.50000000000000000       0.53862623232130069     
  0.37805559276920431        0.0000000000000000       0.99541334430579875     
  0.62194440723079580       -0.0000000000000000        4.5866316941991997E-003
  -0.0000000000000000        0.0000000000000000       -0.0000000000000000     
  0.25805145137493740       -0.0000000000000000       0.24172886369018179     
  0.74194851862506705        0.0000000000000000       0.75827112130982066     
  0.10866387133646890       -0.0000000000000000       0.77167893610711735     
  0.89133614366352876       -0.0000000000000000       0.22832103389288699     
  0.50000000000000000       0.50000000000000000       -0.0000000000000000     
  0.75805148137493295       0.50000000000000000       0.24172886369018179     
  0.24194854862506249       0.50000000000000000       0.75827112130982066     
  0.60866385633647124       0.50000000000000000       0.77167893610711735     
  0.39133614366352859       0.50000000000000000       0.22832103389288699     
