Sn4                                     
   1.0000000000000000     
     5.8848541689889728   -0.0297214857019645    0.0000000000000000
    -0.0297214857019645    5.9442971403929024    0.0000000000000000
     0.0000000000000000    0.0000000000000000    3.1799284298416532
   Sn
     4
Direct
 -0.0000000000000000 -0.0000000000000000  0.4896918203676004
  0.5000000000000000  0.0000000000000000  0.7603081796323996
  0.5000000000000000  0.5000000000000000 -0.0103081796323996
  0.0000000000000000  0.5000000000000000  0.2603081796323996

  0.00000000E+00  0.00000000E+00  0.00000000E+00
  0.00000000E+00  0.00000000E+00  0.00000000E+00
  0.00000000E+00  0.00000000E+00  0.00000000E+00
  0.00000000E+00  0.00000000E+00  0.00000000E+00
