Sn4                                     
   1.0000000000000000     
     5.9442971403929024    0.0000000000000000    0.0000000000000000
     0.0000000000000000    5.9442971403929024    0.0000000000000000
     0.0000000000000000   -0.0000000000000000    3.2120489190319730
   Sn
     4
Direct
  0.0000000000000000  0.0000000000000000  0.5000000000000000
  0.5000000000000000  0.0000000000000000  0.7500000000000000
  0.5000000000000000  0.5000000000000000  0.0000000000000000
  0.0000000000000000  0.5000000000000000  0.2500000000000000

  0.00000000E+00  0.00000000E+00  0.00000000E+00
  0.00000000E+00  0.00000000E+00  0.00000000E+00
  0.00000000E+00  0.00000000E+00  0.00000000E+00
  0.00000000E+00  0.00000000E+00  0.00000000E+00
