TiSi2                                   
   1.0000000000000000     
     4.8107531746015759    0.0240537658730079    0.0000000000000000
     0.0413928303537222    8.2785660707444446    0.0000000000000000
     0.0000000000000000    0.0000000000000000    8.6509035090610276
   Ti   Si
     8    16
Direct
  0.0000000000000000 -0.0000000000000000 -0.0004983026832537
  0.7500000000000000  0.7500000000000000  0.2504983026832536
  0.0000000000000000  0.5000000000000000  0.4995016973167464
  0.7500000000000000  0.2500000000000000  0.7504983026832535
  0.5000000000000000 -0.0000000000000000  0.4995016973167464
  0.2500000000000000  0.7500000000000000  0.7504983026832535
  0.5000000000000000  0.5000000000000000 -0.0004983026832537
  0.2500000000000000  0.2500000000000000  0.2504983026832536
  0.0002518850180475  0.3371082700495033  0.0000247528677983
 -0.0002518850180475  0.6628917599504990  0.0000247528677983
  0.7502518850180473  0.0871082550494986  0.2499752471322017
  0.7497481149819527  0.4128917299504967  0.2499752471322017
  0.0002518850180475  0.8371082400495010  0.5000247528677983
 -0.0002518850180475  0.1628917449505015  0.5000247528677983
  0.7502518850180473  0.5871082400495010  0.7499752471322017
  0.7497481149819527  0.9128917599504990  0.7499752471322017
  0.5002518850180473  0.3371082700495033  0.5000247528677983
  0.4997481149819525  0.6628917599504990  0.5000247528677983
  0.2502518850180474  0.0871082550494986  0.7499752471322017
  0.2497481149819525  0.4128917299504967  0.7499752471322017
  0.5002518850180473  0.8371082400495010  0.0000247528677983
  0.4997481149819525  0.1628917449505015  0.0000247528677983
  0.2502518850180474  0.5871082400495010  0.2499752471322017
  0.2497481149819525  0.9128917599504990  0.2499752471322017

  0.00000000E+00  0.00000000E+00  0.00000000E+00
  0.00000000E+00  0.00000000E+00  0.00000000E+00
  0.00000000E+00  0.00000000E+00  0.00000000E+00
  0.00000000E+00  0.00000000E+00  0.00000000E+00
  0.00000000E+00  0.00000000E+00  0.00000000E+00
  0.00000000E+00  0.00000000E+00  0.00000000E+00
  0.00000000E+00  0.00000000E+00  0.00000000E+00
  0.00000000E+00  0.00000000E+00  0.00000000E+00
  0.00000000E+00  0.00000000E+00  0.00000000E+00
  0.00000000E+00  0.00000000E+00  0.00000000E+00
  0.00000000E+00  0.00000000E+00  0.00000000E+00
  0.00000000E+00  0.00000000E+00  0.00000000E+00
  0.00000000E+00  0.00000000E+00  0.00000000E+00
  0.00000000E+00  0.00000000E+00  0.00000000E+00
  0.00000000E+00  0.00000000E+00  0.00000000E+00
  0.00000000E+00  0.00000000E+00  0.00000000E+00
  0.00000000E+00  0.00000000E+00  0.00000000E+00
  0.00000000E+00  0.00000000E+00  0.00000000E+00
  0.00000000E+00  0.00000000E+00  0.00000000E+00
  0.00000000E+00  0.00000000E+00  0.00000000E+00
  0.00000000E+00  0.00000000E+00  0.00000000E+00
  0.00000000E+00  0.00000000E+00  0.00000000E+00
  0.00000000E+00  0.00000000E+00  0.00000000E+00
  0.00000000E+00  0.00000000E+00  0.00000000E+00
