Mg                                      
   1.0000000000000000     
     6.2788150285225752   -0.0000000257742783    0.0000000002577428
    -3.1394110812901004    5.5485896494546969   -0.0554858964945470
     0.0000000000000000   -0.1029797289755082   10.2979728975508227
   Mg
    16
Direct
  0.1675164648375744  0.3350334356751480  0.1250147988305388
  0.1675164648375744  0.3350334356751480  0.6250147988305390
  0.1675164648375744  0.8350334356751479  0.1250147988305388
  0.1675164648375744  0.8350334356751479  0.6250147988305390
  0.6675164798375721  0.3350334356751480  0.1250147988305388
  0.6675164798375721  0.3350334356751480  0.6250147988305390
  0.6675164798375721  0.8350334356751479  0.1250147988305388
  0.6675164798375721  0.8350334356751479  0.6250147988305390
  0.3324835201624280  0.1649665493248543  0.3749852011694612
  0.3324835201624280  0.1649665493248543  0.8749852011694610
  0.3324835201624280  0.6649665643248521  0.3749852011694612
  0.3324835201624280  0.6649665643248521  0.8749852011694610
  0.8324835201624279  0.1649665493248543  0.3749852011694612
  0.8324835201624279  0.1649665493248543  0.8749852011694610
  0.8324835201624279  0.6649665643248521  0.3749852011694612
  0.8324835201624279  0.6649665643248521  0.8749852011694610

  0.00000000E+00  0.00000000E+00  0.00000000E+00
  0.00000000E+00  0.00000000E+00  0.00000000E+00
  0.00000000E+00  0.00000000E+00  0.00000000E+00
  0.00000000E+00  0.00000000E+00  0.00000000E+00
  0.00000000E+00  0.00000000E+00  0.00000000E+00
  0.00000000E+00  0.00000000E+00  0.00000000E+00
  0.00000000E+00  0.00000000E+00  0.00000000E+00
  0.00000000E+00  0.00000000E+00  0.00000000E+00
  0.00000000E+00  0.00000000E+00  0.00000000E+00
  0.00000000E+00  0.00000000E+00  0.00000000E+00
  0.00000000E+00  0.00000000E+00  0.00000000E+00
  0.00000000E+00  0.00000000E+00  0.00000000E+00
  0.00000000E+00  0.00000000E+00  0.00000000E+00
  0.00000000E+00  0.00000000E+00  0.00000000E+00
  0.00000000E+00  0.00000000E+00  0.00000000E+00
  0.00000000E+00  0.00000000E+00  0.00000000E+00
