Sn4                                     
   1.0000000000000000     
     6.0037401117968319    0.0297214857019645    0.0000000000000000
     0.0297214857019645    5.9442971403929024    0.0000000000000000
     0.0000000000000000    0.0000000000000000    3.2441694082222927
   Sn
     4
Direct
  0.0000000000000000 -0.0000000000000000  0.5106758244715937
  0.5000000000000000  0.0000000000000000  0.7393241755284063
  0.5000000000000000  0.5000000000000000  0.0106758244715936
 -0.0000000000000000  0.5000000000000000  0.2393241755284064

  0.00000000E+00  0.00000000E+00  0.00000000E+00
  0.00000000E+00  0.00000000E+00  0.00000000E+00
  0.00000000E+00  0.00000000E+00  0.00000000E+00
  0.00000000E+00  0.00000000E+00  0.00000000E+00
