TiSi2               
   1.000000000000000
   4.8348069404745830        0.0000000000000000        0.0000000000000000     
   0.0000000000000000        8.3199589010981665        4.1392830353722224E-002
   0.0000000000000000        4.2826254995351622E-002   8.5652509990703241     
   Ti   Si                                                                      
     8    16                                                                    
Direct                                                                          
   0.0000000000000000       -0.0000000000000000        0.0000000000000000     
  0.75000000000000000       0.75000000000000000       0.25000000000000000     
   0.0000000000000000       0.50000000000000000       0.50000000000000000     
  0.75000000000000000       0.25000000000000000       0.75000000000000000     
  0.50000000000000000       -0.0000000000000000       0.50000000000000000     
  0.25000000000000000       0.75000000000000000       0.75000000000000000     
  0.50000000000000000       0.50000000000000000        0.0000000000000000     
  0.25000000000000000       0.25000000000000000       0.25000000000000000     
   0.0000000000000000       0.33673444285906579        0.0000000000000000     
  -0.0000000000000000       0.66326558714093686       -0.0000000000000000     
  0.75000000000000000        8.6734427859060895E-002  0.25000000000000000     
  0.75000000000000000       0.41326555714093421       0.25000000000000000     
   0.0000000000000000       0.83673441285906314       0.50000000000000000     
  -0.0000000000000000       0.16326557214093920       0.50000000000000000     
  0.75000000000000000       0.58673441285906314       0.75000000000000000     
  0.75000000000000000       0.91326558714093686       0.75000000000000000     
  0.50000000000000000       0.33673444285906579       0.50000000000000000     
  0.50000000000000000       0.66326558714093686       0.50000000000000000     
  0.25000000000000000        8.6734427859060895E-002  0.75000000000000000     
  0.25000000000000000       0.41326555714093421       0.75000000000000000     
  0.50000000000000000       0.83673441285906314        0.0000000000000000     
  0.50000000000000000       0.16326557214093920       -0.0000000000000000     
  0.25000000000000000       0.58673441285906314       0.25000000000000000     
  0.25000000000000000       0.91326558714093686       0.25000000000000000     
