TiSi2                                   
   1.0000000000000000     
     4.8588607063475919    0.0000000000000000   -0.0481075317460158
     0.0000000000000000    8.1957804100370009    0.0000000000000000
    -0.0856525099907032    0.0000000000000000    8.5652509990703241
   Ti   Si
     8    16
Direct
  0.0000000000000000  0.0020734676889757  0.0000000000000000
  0.7500000000000000  0.7479265323110246  0.2500000000000000
 -0.0000000000000000  0.5020734676889754  0.5000000000000000
  0.7500000000000000  0.2479265323110243  0.7500000000000000
  0.5000000000000000  0.0020734676889757  0.5000000000000000
  0.2500000000000000  0.7479265323110246  0.7500000000000000
  0.5000000000000000  0.5020734676889754 -0.0000000000000000
  0.2500000000000000  0.2479265323110243  0.2500000000000000
 -0.0000000000000000  0.3384017495764201 -0.0000000000000000
  0.0000000000000000  0.6653625491087226  0.0000000000000000
  0.7500000000000000  0.0846374658912752  0.2500000000000000
  0.7500000000000000  0.4115982504235799  0.2500000000000000
 -0.0000000000000000  0.8384017195764177  0.5000000000000000
 -0.0000000000000000  0.1653625341087248  0.5000000000000000
  0.7500000000000000  0.5846374508912774  0.7500000000000000
  0.7500000000000000  0.9115982804235823  0.7500000000000000
  0.5000000000000000  0.3384017495764201  0.5000000000000000
  0.5000000000000000  0.6653625491087226  0.5000000000000000
  0.2500000000000000  0.0846374658912752  0.7500000000000000
  0.2500000000000000  0.4115982504235799  0.7500000000000000
  0.5000000000000000  0.8384017195764177  0.0000000000000000
  0.5000000000000000  0.1653625341087248  0.0000000000000000
  0.2500000000000000  0.5846374508912774  0.2500000000000000
  0.2500000000000000  0.9115982804235823  0.2500000000000000

  0.00000000E+00  0.00000000E+00  0.00000000E+00
  0.00000000E+00  0.00000000E+00  0.00000000E+00
  0.00000000E+00  0.00000000E+00  0.00000000E+00
  0.00000000E+00  0.00000000E+00  0.00000000E+00
  0.00000000E+00  0.00000000E+00  0.00000000E+00
  0.00000000E+00  0.00000000E+00  0.00000000E+00
  0.00000000E+00  0.00000000E+00  0.00000000E+00
  0.00000000E+00  0.00000000E+00  0.00000000E+00
  0.00000000E+00  0.00000000E+00  0.00000000E+00
  0.00000000E+00  0.00000000E+00  0.00000000E+00
  0.00000000E+00  0.00000000E+00  0.00000000E+00
  0.00000000E+00  0.00000000E+00  0.00000000E+00
  0.00000000E+00  0.00000000E+00  0.00000000E+00
  0.00000000E+00  0.00000000E+00  0.00000000E+00
  0.00000000E+00  0.00000000E+00  0.00000000E+00
  0.00000000E+00  0.00000000E+00  0.00000000E+00
  0.00000000E+00  0.00000000E+00  0.00000000E+00
  0.00000000E+00  0.00000000E+00  0.00000000E+00
  0.00000000E+00  0.00000000E+00  0.00000000E+00
  0.00000000E+00  0.00000000E+00  0.00000000E+00
  0.00000000E+00  0.00000000E+00  0.00000000E+00
  0.00000000E+00  0.00000000E+00  0.00000000E+00
  0.00000000E+00  0.00000000E+00  0.00000000E+00
  0.00000000E+00  0.00000000E+00  0.00000000E+00
