TiSi2                                   
   1.0000000000000000     
     4.8348069404745830    0.0000000000000000   -0.0240537658730079
     0.0000000000000000    8.2371732403907227    0.0000000000000000
    -0.0428262549953516    0.0000000000000000    8.5652509990703241
   Ti   Si
     8    16
Direct
  0.0000000000000000  0.0010410538721951 -0.0000000000000000
  0.7500000000000000  0.7489589461278048  0.2500000000000000
 -0.0000000000000000  0.5010410538721952  0.5000000000000000
  0.7500000000000000  0.2489589461278049  0.7500000000000000
  0.5000000000000000  0.0010410538721951  0.5000000000000000
  0.2500000000000000  0.7489589461278048  0.7500000000000000
  0.5000000000000000  0.5010410538721952 -0.0000000000000000
  0.2500000000000000  0.2489589461278049  0.2500000000000000
  0.0000000000000000  0.3375846337807342 -0.0000000000000000
 -0.0000000000000000  0.6643131627820821 -0.0000000000000000
  0.7500000000000000  0.0856868522179155  0.2500000000000000
  0.7500000000000000  0.4124153662192658  0.2500000000000000
  0.0000000000000000  0.8375846037807316  0.5000000000000000
  0.0000000000000000  0.1643131477820844  0.5000000000000000
  0.7500000000000000  0.5856868372179179  0.7500000000000000
  0.7500000000000000  0.9124153962192684  0.7500000000000000
  0.5000000000000000  0.3375846337807342  0.5000000000000000
  0.5000000000000000  0.6643131627820821  0.5000000000000000
  0.2500000000000000  0.0856868522179155  0.7500000000000000
  0.2500000000000000  0.4124153662192658  0.7500000000000000
  0.5000000000000000  0.8375846037807316  0.0000000000000000
  0.5000000000000000  0.1643131477820844 -0.0000000000000000
  0.2500000000000000  0.5856868372179179  0.2500000000000000
  0.2500000000000000  0.9124153962192684  0.2500000000000000

  0.00000000E+00  0.00000000E+00  0.00000000E+00
  0.00000000E+00  0.00000000E+00  0.00000000E+00
  0.00000000E+00  0.00000000E+00  0.00000000E+00
  0.00000000E+00  0.00000000E+00  0.00000000E+00
  0.00000000E+00  0.00000000E+00  0.00000000E+00
  0.00000000E+00  0.00000000E+00  0.00000000E+00
  0.00000000E+00  0.00000000E+00  0.00000000E+00
  0.00000000E+00  0.00000000E+00  0.00000000E+00
  0.00000000E+00  0.00000000E+00  0.00000000E+00
  0.00000000E+00  0.00000000E+00  0.00000000E+00
  0.00000000E+00  0.00000000E+00  0.00000000E+00
  0.00000000E+00  0.00000000E+00  0.00000000E+00
  0.00000000E+00  0.00000000E+00  0.00000000E+00
  0.00000000E+00  0.00000000E+00  0.00000000E+00
  0.00000000E+00  0.00000000E+00  0.00000000E+00
  0.00000000E+00  0.00000000E+00  0.00000000E+00
  0.00000000E+00  0.00000000E+00  0.00000000E+00
  0.00000000E+00  0.00000000E+00  0.00000000E+00
  0.00000000E+00  0.00000000E+00  0.00000000E+00
  0.00000000E+00  0.00000000E+00  0.00000000E+00
  0.00000000E+00  0.00000000E+00  0.00000000E+00
  0.00000000E+00  0.00000000E+00  0.00000000E+00
  0.00000000E+00  0.00000000E+00  0.00000000E+00
  0.00000000E+00  0.00000000E+00  0.00000000E+00
