Sn4                 
   1.000000000000000
   5.9442971403929024        0.0000000000000000        0.0000000000000000     
   0.0000000000000000        5.9145756546909380       -2.9721485701964513E-002
   0.0000000000000000       -1.6060244595159864E-002   3.1799284298416532     
   Sn                                                                           
     4                                                                          
Direct                                                                          
   0.0000000000000000       -0.0000000000000000       0.50000000000000000     
  0.50000000000000000        0.0000000000000000       0.75000000000000000     
  0.50000000000000000       0.50000000000000000        0.0000000000000000     
   0.0000000000000000       0.50000000000000000       0.25000000000000000     
