Sn4                 
   1.000000000000000
   5.8254111975850442       -5.9442971403929026E-002   0.0000000000000000     
  -5.9442971403929026E-002   5.9442971403929024        0.0000000000000000     
   0.0000000000000000        0.0000000000000000        3.1478079406513335     
   Sn                                                                           
     4                                                                          
Direct                                                                          
   0.0000000000000000       -0.0000000000000000       0.50000000000000000     
  0.50000000000000000        0.0000000000000000       0.75000000000000000     
  0.50000000000000000       0.50000000000000000        0.0000000000000000     
   0.0000000000000000       0.50000000000000000       0.25000000000000000     
