Sn4                 
   1.000000000000000
   5.9442971403929024        0.0000000000000000        0.0000000000000000     
   0.0000000000000000        6.0037401117968319        5.9442971403929026E-002
   0.0000000000000000        3.2120489190319727E-002   3.2762898974126125     
   Sn                                                                           
     4                                                                          
Direct                                                                          
   0.0000000000000000       -0.0000000000000000       0.50000000000000000     
  0.50000000000000000        0.0000000000000000       0.75000000000000000     
  0.50000000000000000       0.50000000000000000        0.0000000000000000     
   0.0000000000000000       0.50000000000000000       0.25000000000000000     
