Sn4                 
   1.000000000000000
   5.8848541689889728       -2.9721485701964513E-002   0.0000000000000000     
  -2.9721485701964513E-002   5.9442971403929024        0.0000000000000000     
   0.0000000000000000        0.0000000000000000        3.1799284298416532     
   Sn                                                                           
     4                                                                          
Direct                                                                          
   0.0000000000000000       -0.0000000000000000       0.50000000000000000     
  0.50000000000000000        0.0000000000000000       0.75000000000000000     
  0.50000000000000000       0.50000000000000000        0.0000000000000000     
   0.0000000000000000       0.50000000000000000       0.25000000000000000     
