Sn4                                     
   1.0000000000000000     
     5.9442971403929024    0.0000000000000000    0.0000000000000000
     0.0000000000000000    6.0037401117968319    0.0594429714039290
     0.0000000000000000    0.0321204891903197    3.2762898974126125
   Sn
     4
Direct
 -0.0000000000000000 -0.0007044632647018  0.4908151003254498
  0.5000000000000000  0.0007044632647018  0.7591848996745504
  0.5000000000000000  0.4992955367352983 -0.0091848996745503
  0.0000000000000000  0.5007044632647019  0.2591848996745502

  0.00000000E+00  0.00000000E+00  0.00000000E+00
  0.00000000E+00  0.00000000E+00  0.00000000E+00
  0.00000000E+00  0.00000000E+00  0.00000000E+00
  0.00000000E+00  0.00000000E+00  0.00000000E+00
