Al2O3_R-3cH                             
   1.0000000000000000     
     4.8027765869102383   -0.0000000000005784    0.0000000000000059
    -2.4013882935061432    4.0761400023554977   -0.0415932653301581
     0.0000000000000000   -0.1310262649063902   13.1026264906390235
   Al   O 
    12    18
Direct
 -0.0020067706107260 -0.0030292571092709  0.3518676662141252
  0.0020067706107260  0.0030292571092709  0.6481323037858794
  0.0010224864985449  0.0030292571092709  0.1481323337858748
 -0.0010224864985449 -0.0030292571092709  0.8518676962141206
  0.6646599163892767  0.3303040858907286  0.6852010092141249
  0.6686734576107290  0.3363626001092706  0.9814656767858815
  0.6676891734985477  0.3363626001092706  0.4814656767858815
  0.6656442005014580  0.3303040858907286  0.1852009502141234
  0.3313265723892736  0.6636374298907319  0.0185343232141185
  0.3353401136107256  0.6696959441092738  0.3147989907858751
  0.3343558294985444  0.6696959441092738  0.8147989907858751
  0.3323108565014548  0.6636374298907319  0.5185343232141185
  0.3061416833722377  0.0000000000000000  0.2500000000000000
  0.6938583166277620  0.0000000000000000  0.7500000000000000
  0.0001664833726307  0.3070641600671859  0.2496881169206792
 -0.0001664833726307  0.6929358399328142  0.7503118830793211
  0.6931023233054450  0.6929358399328142  0.2503118830793209
  0.3068976766945549  0.3070641600671859  0.7496881169206789
  0.9728083703722409  0.3333333429999996  0.5833333129999971
  0.3605249736277627  0.3333333429999996  0.0833333360000026
  0.6668331703726336  0.6403974740671866  0.5830214299206761
  0.6665002036273722  0.0262691739328166  0.0836452190793235
  0.3597689803054455  0.0262691739328166  0.5836451960793182
  0.9735643636945579  0.6403974740671866  0.0830214529206817
  0.6394749973722388  0.6666666870000029  0.9166666870000029
  0.0271916506277646  0.6666666870000029  0.4166666570000004
  0.3334998263726303  0.9737308470671887  0.9163548039206818
  0.3331668596273689  0.3596024969328145  0.4169785400793213
  0.0264356573054473  0.3596024969328145  0.9169785700793239
  0.6402309906945558  0.9737308470671887  0.4163547739206795

  0.00000000E+00  0.00000000E+00  0.00000000E+00
  0.00000000E+00  0.00000000E+00  0.00000000E+00
  0.00000000E+00  0.00000000E+00  0.00000000E+00
  0.00000000E+00  0.00000000E+00  0.00000000E+00
  0.00000000E+00  0.00000000E+00  0.00000000E+00
  0.00000000E+00  0.00000000E+00  0.00000000E+00
  0.00000000E+00  0.00000000E+00  0.00000000E+00
  0.00000000E+00  0.00000000E+00  0.00000000E+00
  0.00000000E+00  0.00000000E+00  0.00000000E+00
  0.00000000E+00  0.00000000E+00  0.00000000E+00
  0.00000000E+00  0.00000000E+00  0.00000000E+00
  0.00000000E+00  0.00000000E+00  0.00000000E+00
  0.00000000E+00  0.00000000E+00  0.00000000E+00
  0.00000000E+00  0.00000000E+00  0.00000000E+00
  0.00000000E+00  0.00000000E+00  0.00000000E+00
  0.00000000E+00  0.00000000E+00  0.00000000E+00
  0.00000000E+00  0.00000000E+00  0.00000000E+00
  0.00000000E+00  0.00000000E+00  0.00000000E+00
  0.00000000E+00  0.00000000E+00  0.00000000E+00
  0.00000000E+00  0.00000000E+00  0.00000000E+00
  0.00000000E+00  0.00000000E+00  0.00000000E+00
  0.00000000E+00  0.00000000E+00  0.00000000E+00
  0.00000000E+00  0.00000000E+00  0.00000000E+00
  0.00000000E+00  0.00000000E+00  0.00000000E+00
  0.00000000E+00  0.00000000E+00  0.00000000E+00
  0.00000000E+00  0.00000000E+00  0.00000000E+00
  0.00000000E+00  0.00000000E+00  0.00000000E+00
  0.00000000E+00  0.00000000E+00  0.00000000E+00
  0.00000000E+00  0.00000000E+00  0.00000000E+00
  0.00000000E+00  0.00000000E+00  0.00000000E+00
