Mg                                      
   1.0000000000000000     
     6.4069541107373214   -0.0000000257742783    0.0000000000000000
    -3.2034806951939800    5.5485896494546969    0.0000000000000000
     0.0000000000000000    0.0000000000000000   10.5039323555018385
   Mg
    16
Direct
  0.1666664930000010  0.3333334920000013  0.1250000000000000
  0.1666664930000010  0.3333334920000013  0.6250000000000000
  0.1666664930000010  0.8333334920000013  0.1250000000000000
  0.1666664930000010  0.8333334920000013  0.6250000000000000
  0.6666665079999987  0.3333334920000013  0.1250000000000000
  0.6666665079999987  0.3333334920000013  0.6250000000000000
  0.6666665079999987  0.8333334920000013  0.1250000000000000
  0.6666665079999987  0.8333334920000013  0.6250000000000000
  0.3333334920000013  0.1666664930000010  0.3750000000000000
  0.3333334920000013  0.1666664930000010  0.8750000000000000
  0.3333334920000013  0.6666665079999987  0.3750000000000000
  0.3333334920000013  0.6666665079999987  0.8750000000000000
  0.8333334920000013  0.1666664930000010  0.3750000000000000
  0.8333334920000013  0.1666664930000010  0.8750000000000000
  0.8333334920000013  0.6666665079999987  0.3750000000000000
  0.8333334920000013  0.6666665079999987  0.8750000000000000

  0.00000000E+00  0.00000000E+00  0.00000000E+00
  0.00000000E+00  0.00000000E+00  0.00000000E+00
  0.00000000E+00  0.00000000E+00  0.00000000E+00
  0.00000000E+00  0.00000000E+00  0.00000000E+00
  0.00000000E+00  0.00000000E+00  0.00000000E+00
  0.00000000E+00  0.00000000E+00  0.00000000E+00
  0.00000000E+00  0.00000000E+00  0.00000000E+00
  0.00000000E+00  0.00000000E+00  0.00000000E+00
  0.00000000E+00  0.00000000E+00  0.00000000E+00
  0.00000000E+00  0.00000000E+00  0.00000000E+00
  0.00000000E+00  0.00000000E+00  0.00000000E+00
  0.00000000E+00  0.00000000E+00  0.00000000E+00
  0.00000000E+00  0.00000000E+00  0.00000000E+00
  0.00000000E+00  0.00000000E+00  0.00000000E+00
  0.00000000E+00  0.00000000E+00  0.00000000E+00
  0.00000000E+00  0.00000000E+00  0.00000000E+00
