Al2O3_R-3cH                             
   1.0000000000000000     
     4.8027765869102383   -0.0000000000006020   -0.0000000000000059
    -2.4013882935061432    4.2425130636761299    0.0415932653301581
     0.0000000000000000    0.1310262649063902   13.1026264906390235
   Al   O 
    12    18
Direct
  0.0021629868923081  0.0030316943624539  0.3526408089154076
 -0.0021629868923081 -0.0030316943624539  0.6473591610845971
 -0.0008687074701458 -0.0030316943624539  0.1473591910845925
  0.0008687074701458  0.0030316943624539  0.8526408389154029
  0.6688296738923108  0.3363650373624535  0.6859741519154071
  0.6645037001076949  0.3303016486375457  0.9806925340845992
  0.6657979795298570  0.3303016486375457  0.4806925340845991
  0.6675353944701488  0.3363650373624535  0.1859740929154058
  0.3354963298923078  0.6696983813624569  0.0193074659154008
  0.3311703561076915  0.6636349926375489  0.3140258480845928
  0.3324646355298538  0.6636349926375489  0.8140258480845929
  0.3342020504701454  0.6696983813624569  0.5193074659154008
  0.3057850749457715 -0.0000000000000000  0.2500000000000000
  0.6942149250542287 -0.0000000000000000  0.7500000000000000
 -0.0008103628089869  0.3053252318025593  0.2505118660404476
  0.0008103628089869  0.6946747681974407  0.7494881339595524
  0.6938644053884538  0.6946747681974407  0.2494881339595523
  0.3061355946115462  0.3053252318025593  0.7505118660404476
  0.9724517619457742  0.3333333429999996  0.5833333129999971
  0.3608815820542289  0.3333333429999996  0.0833333360000026
  0.6658563241910159  0.6386585458025601  0.5838451790404448
  0.6674770498089898  0.0280081021974431  0.0828214699595549
  0.3605310623884542  0.0280081021974431  0.5828214469595495
  0.9728022816115490  0.6386585458025601  0.0838452020404503
  0.6391183889457721  0.6666666870000029  0.9166666870000029
  0.0275482590542310  0.6666666870000029  0.4166666570000004
  0.3325229801910128  0.9719919188025622  0.9171785530404505
  0.3341437058089864  0.3613414251974411  0.4161547909595528
  0.0271977393884562  0.3613414251974411  0.9161548209595552
  0.6394689086115469  0.9719919188025622  0.4171785230404480

  0.00000000E+00  0.00000000E+00  0.00000000E+00
  0.00000000E+00  0.00000000E+00  0.00000000E+00
  0.00000000E+00  0.00000000E+00  0.00000000E+00
  0.00000000E+00  0.00000000E+00  0.00000000E+00
  0.00000000E+00  0.00000000E+00  0.00000000E+00
  0.00000000E+00  0.00000000E+00  0.00000000E+00
  0.00000000E+00  0.00000000E+00  0.00000000E+00
  0.00000000E+00  0.00000000E+00  0.00000000E+00
  0.00000000E+00  0.00000000E+00  0.00000000E+00
  0.00000000E+00  0.00000000E+00  0.00000000E+00
  0.00000000E+00  0.00000000E+00  0.00000000E+00
  0.00000000E+00  0.00000000E+00  0.00000000E+00
  0.00000000E+00  0.00000000E+00  0.00000000E+00
  0.00000000E+00  0.00000000E+00  0.00000000E+00
  0.00000000E+00  0.00000000E+00  0.00000000E+00
  0.00000000E+00  0.00000000E+00  0.00000000E+00
  0.00000000E+00  0.00000000E+00  0.00000000E+00
  0.00000000E+00  0.00000000E+00  0.00000000E+00
  0.00000000E+00  0.00000000E+00  0.00000000E+00
  0.00000000E+00  0.00000000E+00  0.00000000E+00
  0.00000000E+00  0.00000000E+00  0.00000000E+00
  0.00000000E+00  0.00000000E+00  0.00000000E+00
  0.00000000E+00  0.00000000E+00  0.00000000E+00
  0.00000000E+00  0.00000000E+00  0.00000000E+00
  0.00000000E+00  0.00000000E+00  0.00000000E+00
  0.00000000E+00  0.00000000E+00  0.00000000E+00
  0.00000000E+00  0.00000000E+00  0.00000000E+00
  0.00000000E+00  0.00000000E+00  0.00000000E+00
  0.00000000E+00  0.00000000E+00  0.00000000E+00
  0.00000000E+00  0.00000000E+00  0.00000000E+00
