TiSi2                                   
   1.0000000000000000     
     4.8107531746015759    0.0000000000000000    0.0000000000000000
     0.0000000000000000    8.2785660707444446    0.0000000000000000
     0.0000000000000000    0.0000000000000000    8.5652509990703241
   Ti   Si
     8    16
Direct
  0.0000000000000000  0.0000000000000000  0.0000000000000000
  0.7500000000000000  0.7500000000000000  0.2500000000000000
  0.0000000000000000  0.5000000000000000  0.5000000000000000
  0.7500000000000000  0.2500000000000000  0.7500000000000000
  0.5000000000000000  0.0000000000000000  0.5000000000000000
  0.2500000000000000  0.7500000000000000  0.7500000000000000
  0.5000000000000000  0.5000000000000000  0.0000000000000000
  0.2500000000000000  0.2500000000000000  0.2500000000000000
  0.0000000000000000  0.3367344428590684  0.0000000000000000
  0.0000000000000000  0.6632655871409341  0.0000000000000000
  0.7500000000000000  0.0867344278590636  0.2500000000000000
  0.7500000000000000  0.4132655571409316  0.2500000000000000
  0.0000000000000000  0.8367344128590659  0.5000000000000000
  0.0000000000000000  0.1632655721409364  0.5000000000000000
  0.7500000000000000  0.5867344128590659  0.7500000000000000
  0.7500000000000000  0.9132655871409341  0.7500000000000000
  0.5000000000000000  0.3367344428590684  0.5000000000000000
  0.5000000000000000  0.6632655871409341  0.5000000000000000
  0.2500000000000000  0.0867344278590636  0.7500000000000000
  0.2500000000000000  0.4132655571409316  0.7500000000000000
  0.5000000000000000  0.8367344128590659  0.0000000000000000
  0.5000000000000000  0.1632655721409364  0.0000000000000000
  0.2500000000000000  0.5867344128590659  0.2500000000000000
  0.2500000000000000  0.9132655871409341  0.2500000000000000

  0.00000000E+00  0.00000000E+00  0.00000000E+00
  0.00000000E+00  0.00000000E+00  0.00000000E+00
  0.00000000E+00  0.00000000E+00  0.00000000E+00
  0.00000000E+00  0.00000000E+00  0.00000000E+00
  0.00000000E+00  0.00000000E+00  0.00000000E+00
  0.00000000E+00  0.00000000E+00  0.00000000E+00
  0.00000000E+00  0.00000000E+00  0.00000000E+00
  0.00000000E+00  0.00000000E+00  0.00000000E+00
  0.00000000E+00  0.00000000E+00  0.00000000E+00
  0.00000000E+00  0.00000000E+00  0.00000000E+00
  0.00000000E+00  0.00000000E+00  0.00000000E+00
  0.00000000E+00  0.00000000E+00  0.00000000E+00
  0.00000000E+00  0.00000000E+00  0.00000000E+00
  0.00000000E+00  0.00000000E+00  0.00000000E+00
  0.00000000E+00  0.00000000E+00  0.00000000E+00
  0.00000000E+00  0.00000000E+00  0.00000000E+00
  0.00000000E+00  0.00000000E+00  0.00000000E+00
  0.00000000E+00  0.00000000E+00  0.00000000E+00
  0.00000000E+00  0.00000000E+00  0.00000000E+00
  0.00000000E+00  0.00000000E+00  0.00000000E+00
  0.00000000E+00  0.00000000E+00  0.00000000E+00
  0.00000000E+00  0.00000000E+00  0.00000000E+00
  0.00000000E+00  0.00000000E+00  0.00000000E+00
  0.00000000E+00  0.00000000E+00  0.00000000E+00
