TiSi2                                   
   1.0000000000000000     
     4.8107531746015759    0.0000000000000000    0.0000000000000000
     0.0000000000000000    8.2785660707444446    0.0000000000000000
     0.0000000000000000    0.0000000000000000    8.5652509990703241
   Ti   Si
     8    16
Direct
  0.0000000000000000 -0.0000000000000000  0.0000000000000000
  0.7500000000000000  0.7500000000000000  0.2500000000000000
  0.0000000000000000  0.5000000000000000  0.5000000000000000
  0.7500000000000000  0.2500000000000000  0.7500000000000000
  0.5000000000000000 -0.0000000000000000  0.5000000000000000
  0.2500000000000000  0.7500000000000000  0.7500000000000000
  0.5000000000000000  0.5000000000000000  0.0000000000000000
  0.2500000000000000  0.2500000000000000  0.2500000000000000
  0.0000000000000000  0.3367344428590658  0.0000000000000000
 -0.0000000000000000  0.6632655871409369 -0.0000000000000000
  0.7500000000000000  0.0867344278590609  0.2500000000000000
  0.7500000000000000  0.4132655571409342  0.2500000000000000
  0.0000000000000000  0.8367344128590631  0.5000000000000000
 -0.0000000000000000  0.1632655721409392  0.5000000000000000
  0.7500000000000000  0.5867344128590631  0.7500000000000000
  0.7500000000000000  0.9132655871409369  0.7500000000000000
  0.5000000000000000  0.3367344428590658  0.5000000000000000
  0.5000000000000000  0.6632655871409369  0.5000000000000000
  0.2500000000000000  0.0867344278590609  0.7500000000000000
  0.2500000000000000  0.4132655571409342  0.7500000000000000
  0.5000000000000000  0.8367344128590631  0.0000000000000000
  0.5000000000000000  0.1632655721409392 -0.0000000000000000
  0.2500000000000000  0.5867344128590631  0.2500000000000000
  0.2500000000000000  0.9132655871409369  0.2500000000000000
