AlCu                                    
   1.0000000000000000     
    11.9985756271525474   -0.0000428399823753    0.0085679964750541
     0.0000000000000000    4.1047318575138929   -0.0205236592875695
    -3.9339742981468033   -0.0284242913083368    5.6848582616673555
   Al   Cu
    10    10
Direct
  0.5000000000000000  0.0000000000000000  0.5000000000000000
  0.1562870676009211 -0.0016016024777841  0.4619518932413813
  0.8437129173990743  0.0016016024777841  0.5380480777586200
  0.8779647297924877  0.4998227780189985  0.9956022259539086
  0.1220352632075081  0.5001772219810015  0.0043977500460894
 -0.0000000000000000  0.5000000000000000  0.5000000000000000
  0.6562870826009257  0.4983983975222158  0.4619518932413813
  0.3437129473990766  0.5016016024777840  0.5380480777586200
  0.3779647297924950 -0.0001772219810014  0.9956022259539086
  0.6220352702075123  0.0001772219810014  0.0043977500460894
 -0.0000000000000000  0.0000000000000000  0.0000000000000000
  0.2579584045176307  0.0010613538165403  0.2406040155667707
  0.7420415654823739 -0.0010613538165403  0.7593959694332317
  0.1083883548963418 -0.0002054548884902  0.7713926571419389
  0.8916116601036559  0.0002054548884902  0.2286073128580657
  0.5000000000000000  0.5000000000000000  0.0000000000000000
  0.7579584345176261  0.5010613538165403  0.2406040155667707
  0.2420415954823693  0.4989386461834597  0.7593959694332317
  0.6083883398963441  0.4997945451115098  0.7713926571419389
  0.3916116601036559  0.5002054548884901  0.2286073128580657

  0.00000000E+00  0.00000000E+00  0.00000000E+00
  0.00000000E+00  0.00000000E+00  0.00000000E+00
  0.00000000E+00  0.00000000E+00  0.00000000E+00
  0.00000000E+00  0.00000000E+00  0.00000000E+00
  0.00000000E+00  0.00000000E+00  0.00000000E+00
  0.00000000E+00  0.00000000E+00  0.00000000E+00
  0.00000000E+00  0.00000000E+00  0.00000000E+00
  0.00000000E+00  0.00000000E+00  0.00000000E+00
  0.00000000E+00  0.00000000E+00  0.00000000E+00
  0.00000000E+00  0.00000000E+00  0.00000000E+00
  0.00000000E+00  0.00000000E+00  0.00000000E+00
  0.00000000E+00  0.00000000E+00  0.00000000E+00
  0.00000000E+00  0.00000000E+00  0.00000000E+00
  0.00000000E+00  0.00000000E+00  0.00000000E+00
  0.00000000E+00  0.00000000E+00  0.00000000E+00
  0.00000000E+00  0.00000000E+00  0.00000000E+00
  0.00000000E+00  0.00000000E+00  0.00000000E+00
  0.00000000E+00  0.00000000E+00  0.00000000E+00
  0.00000000E+00  0.00000000E+00  0.00000000E+00
  0.00000000E+00  0.00000000E+00  0.00000000E+00
