Al2O3_R-3cH                             
   1.0000000000000000     
     4.8027765869102446   -0.0480277658696926    0.0000000000000000
    -2.4429815588363013    4.1833404159508749    0.0000000000000000
     0.0000000000000000    0.0000000000000000   12.8405739608262426
   Al   O 
    12    18
Direct
  0.0010226420267009 -0.0007815160392830  0.3528510890030515
 -0.0010226420267009  0.0007815160392830  0.6471488809969534
 -0.0018378072686905 -0.0007484851807688  0.1471507814963256
  0.0018378072686905  0.0007484851807688  0.8528492485036699
  0.6676893290267039  0.3325518269607167  0.6861844320030508
  0.6656440449733019  0.3341148590392826  0.9804822539969555
  0.6648288797313125  0.3325848578192309  0.4804841244963323
  0.6685044942686932  0.3340818281807684  0.1861825025036727
  0.3343559850267006  0.6658851709607200  0.0195177460030447
  0.3323107009732986  0.6674482030392858  0.3138155679969489
  0.3314955357313091  0.6659182018192340  0.8138174384963258
  0.3351711502686901  0.6674151721807717  0.5195158755036678
  0.3061936989329396  0.0008563041118146  0.2503654592959260
  0.6938063010670609 -0.0008563041118146  0.7496345407040741
  0.0004026240010405  0.3054712636183103  0.2498102606669176
 -0.0004026240010405  0.6945287363816898  0.7501897393330821
  0.6934561385649178  0.6939101925944865  0.2498246514406272
  0.3065438614350822  0.3060898074055138  0.7501753485593731
  0.9728603859329420  0.3341896471118141  0.5836987722959230
  0.3604729580670608  0.3324770388881851  0.0829678767040765
  0.6670693110010434  0.6388045776183110  0.5831435736669150
  0.6662640629989623  0.0278620703816922  0.0835230753330850
  0.3601227955649182  0.0272435265944888  0.5831579644406241
  0.9732105484350850  0.6394231214055143  0.0835086845593753
  0.6395270129329399  0.6675229911118171  0.9170321462959288
  0.0271396350670630  0.6658103828881886  0.4163011977040744
  0.3337359670010401  0.9721379506183131  0.9164769476669208
  0.3329307189989591  0.3611953933816901  0.4168563963330829
  0.0267894725649203  0.3605768495944866  0.9164913384406298
  0.6398771754350829  0.9727564944055164  0.4168420055593731

  0.00000000E+00  0.00000000E+00  0.00000000E+00
  0.00000000E+00  0.00000000E+00  0.00000000E+00
  0.00000000E+00  0.00000000E+00  0.00000000E+00
  0.00000000E+00  0.00000000E+00  0.00000000E+00
  0.00000000E+00  0.00000000E+00  0.00000000E+00
  0.00000000E+00  0.00000000E+00  0.00000000E+00
  0.00000000E+00  0.00000000E+00  0.00000000E+00
  0.00000000E+00  0.00000000E+00  0.00000000E+00
  0.00000000E+00  0.00000000E+00  0.00000000E+00
  0.00000000E+00  0.00000000E+00  0.00000000E+00
  0.00000000E+00  0.00000000E+00  0.00000000E+00
  0.00000000E+00  0.00000000E+00  0.00000000E+00
  0.00000000E+00  0.00000000E+00  0.00000000E+00
  0.00000000E+00  0.00000000E+00  0.00000000E+00
  0.00000000E+00  0.00000000E+00  0.00000000E+00
  0.00000000E+00  0.00000000E+00  0.00000000E+00
  0.00000000E+00  0.00000000E+00  0.00000000E+00
  0.00000000E+00  0.00000000E+00  0.00000000E+00
  0.00000000E+00  0.00000000E+00  0.00000000E+00
  0.00000000E+00  0.00000000E+00  0.00000000E+00
  0.00000000E+00  0.00000000E+00  0.00000000E+00
  0.00000000E+00  0.00000000E+00  0.00000000E+00
  0.00000000E+00  0.00000000E+00  0.00000000E+00
  0.00000000E+00  0.00000000E+00  0.00000000E+00
  0.00000000E+00  0.00000000E+00  0.00000000E+00
  0.00000000E+00  0.00000000E+00  0.00000000E+00
  0.00000000E+00  0.00000000E+00  0.00000000E+00
  0.00000000E+00  0.00000000E+00  0.00000000E+00
  0.00000000E+00  0.00000000E+00  0.00000000E+00
  0.00000000E+00  0.00000000E+00  0.00000000E+00
