AlCu                                    
   1.0000000000000000     
    12.2409710943677510    0.0000428399823753    0.0085679964750541
     0.0000000000000000    4.1047318575138929    0.0205236592875695
    -4.0134485263921933    0.0284242913083368    5.6848582616673555
   Al   Cu
    10    10
Direct
  0.5000000000000000 -0.0000000000000000  0.5000000000000000
  0.1553786451234634  0.0018349315455351  0.4607044071006098
  0.8446213398765318 -0.0018349315455351  0.5392955638993913
  0.8782335954183796  0.5002121454503164  0.9952364331011712
  0.1217663975816162  0.4997878545496837  0.0047635428988268
  0.0000000000000000  0.5000000000000000  0.5000000000000000
  0.6553786601234682  0.5018349315455352  0.4607044071006098
  0.3446213698765343  0.4981650684544649  0.5392955638993913
  0.3782335954183867  0.0002121454503164  0.9952364331011712
  0.6217664045816204 -0.0002121454503164  0.0047635428988268
  0.0000000000000000 -0.0000000000000000  0.0000000000000000
  0.2581208696721267 -0.0010404607716604  0.2428665304925429
  0.7418791003278777  0.0010404607716604  0.7571334545074596
  0.1091158709561548  0.0000624301277705  0.7721789605685924
  0.8908841440438429 -0.0000624301277705  0.2278210094314122
  0.5000000000000000  0.5000000000000000  0.0000000000000000
  0.7581208996721223  0.4989595392283396  0.2428665304925429
  0.2418791303278732  0.5010404607716603  0.7571334545074596
  0.6091158559561571  0.5000624301277706  0.7721789605685924
  0.3908841440438429  0.4999375698722295  0.2278210094314122

  0.00000000E+00  0.00000000E+00  0.00000000E+00
  0.00000000E+00  0.00000000E+00  0.00000000E+00
  0.00000000E+00  0.00000000E+00  0.00000000E+00
  0.00000000E+00  0.00000000E+00  0.00000000E+00
  0.00000000E+00  0.00000000E+00  0.00000000E+00
  0.00000000E+00  0.00000000E+00  0.00000000E+00
  0.00000000E+00  0.00000000E+00  0.00000000E+00
  0.00000000E+00  0.00000000E+00  0.00000000E+00
  0.00000000E+00  0.00000000E+00  0.00000000E+00
  0.00000000E+00  0.00000000E+00  0.00000000E+00
  0.00000000E+00  0.00000000E+00  0.00000000E+00
  0.00000000E+00  0.00000000E+00  0.00000000E+00
  0.00000000E+00  0.00000000E+00  0.00000000E+00
  0.00000000E+00  0.00000000E+00  0.00000000E+00
  0.00000000E+00  0.00000000E+00  0.00000000E+00
  0.00000000E+00  0.00000000E+00  0.00000000E+00
  0.00000000E+00  0.00000000E+00  0.00000000E+00
  0.00000000E+00  0.00000000E+00  0.00000000E+00
  0.00000000E+00  0.00000000E+00  0.00000000E+00
  0.00000000E+00  0.00000000E+00  0.00000000E+00
