Sn4                                     
   1.0000000000000000     
     6.0631830832007605    0.0594429714039290    0.0000000000000000
     0.0594429714039290    5.9442971403929024    0.0000000000000000
     0.0000000000000000    0.0000000000000000    3.2762898974126125
   Sn
     4
Direct
  0.0000000000000000  0.0000000000000000  0.5186561515789390
  0.5000000000000000  0.0000000000000000  0.7313438484210610
  0.5000000000000000  0.5000000000000000  0.0186561515789390
  0.0000000000000000  0.5000000000000000  0.2313438484210610

  0.00000000E+00  0.00000000E+00  0.00000000E+00
  0.00000000E+00  0.00000000E+00  0.00000000E+00
  0.00000000E+00  0.00000000E+00  0.00000000E+00
  0.00000000E+00  0.00000000E+00  0.00000000E+00
