Si8                                     
   1.0000000000000000     
     5.3257645014128974   -0.0543445357287030    0.0000000000000000
    -0.0543445357287030    5.4344535728703036    0.0000000000000000
     0.0000000000000000    0.0000000000000000    5.4344535728703036
   Si
     8
Direct
  0.0000000000000000 -0.0000000000000000 -0.0014248394297864
  0.7500000000000000  0.7500000000000000  0.2514248394297864
 -0.0000000000000000  0.5000000000000000  0.4985751605702136
  0.7500000000000000  0.2500000000000000  0.7514248394297864
  0.5000000000000000  0.0000000000000000  0.4985751605702136
  0.2500000000000000  0.7500000000000000  0.7514248394297864
  0.5000000000000000  0.5000000000000000 -0.0014248394297864
  0.2500000000000000  0.2500000000000000  0.2514248394297864

  0.00000000E+00  0.00000000E+00  0.00000000E+00
  0.00000000E+00  0.00000000E+00  0.00000000E+00
  0.00000000E+00  0.00000000E+00  0.00000000E+00
  0.00000000E+00  0.00000000E+00  0.00000000E+00
  0.00000000E+00  0.00000000E+00  0.00000000E+00
  0.00000000E+00  0.00000000E+00  0.00000000E+00
  0.00000000E+00  0.00000000E+00  0.00000000E+00
  0.00000000E+00  0.00000000E+00  0.00000000E+00
