Si8                                     
   1.0000000000000000     
     5.5431426443277099    0.0543445357287030    0.0000000000000000
     0.0543445357287030    5.4344535728703036    0.0000000000000000
     0.0000000000000000    0.0000000000000000    5.4344535728703036
   Si
     8
Direct
 -0.0000000000000000  0.0000000000000000  0.0012898550357309
  0.7500000000000000  0.7500000000000000  0.2487101449642691
 -0.0000000000000000  0.5000000000000000  0.5012898550357310
  0.7500000000000000  0.2500000000000000  0.7487101449642690
  0.5000000000000000  0.0000000000000000  0.5012898550357310
  0.2500000000000000  0.7500000000000000  0.7487101449642690
  0.5000000000000000  0.5000000000000000  0.0012898550357309
  0.2500000000000000  0.2500000000000000  0.2487101449642691

  0.00000000E+00  0.00000000E+00  0.00000000E+00
  0.00000000E+00  0.00000000E+00  0.00000000E+00
  0.00000000E+00  0.00000000E+00  0.00000000E+00
  0.00000000E+00  0.00000000E+00  0.00000000E+00
  0.00000000E+00  0.00000000E+00  0.00000000E+00
  0.00000000E+00  0.00000000E+00  0.00000000E+00
  0.00000000E+00  0.00000000E+00  0.00000000E+00
  0.00000000E+00  0.00000000E+00  0.00000000E+00
