Si8                 
   1.000000000000000
   5.5431426443277099        5.4344535728703035E-002   0.0000000000000000     
   5.4344535728703035E-002   5.4344535728703036        0.0000000000000000     
   0.0000000000000000        0.0000000000000000        5.4344535728703036     
   Si                                                                           
     8                                                                          
Direct                                                                          
   0.0000000000000000        0.0000000000000000        0.0000000000000000     
  0.75000000000000000       0.75000000000000000       0.25000000000000000     
   0.0000000000000000       0.50000000000000000       0.50000000000000000     
  0.75000000000000000       0.25000000000000000       0.75000000000000000     
  0.50000000000000000        0.0000000000000000       0.50000000000000000     
  0.25000000000000000       0.75000000000000000       0.75000000000000000     
  0.50000000000000000       0.50000000000000000        0.0000000000000000     
  0.25000000000000000       0.25000000000000000       0.25000000000000000     
