AlCu                                    
   1.0000000000000000     
    12.1197733607601492    0.0000000000000000    0.0083966365455530
     0.0000000000000000    4.1047318575138929    0.0000000000000000
    -3.9737114122694983    0.0000000000000000    5.5711610964340084
   Al   Cu
    10    10
Direct
  0.5000000000000000  0.0000000000000000  0.5000000000000000
  0.1565710456315367  0.0000000000000000  0.4617472677873854
  0.8434289393684582 -0.0000000000000000  0.5382527032126158
  0.8788157451164732  0.5000000000000000  0.9945381739802829
  0.1211842478835226  0.5000000000000000  0.0054618020197150
 -0.0000000000000000  0.5000000000000000  0.5000000000000000
  0.6565710606315418  0.5000000000000000  0.4617472677873854
  0.3434289693684610  0.5000000000000000  0.5382527032126158
  0.3788157451164804  0.0000000000000000  0.9945381739802829
  0.6211842548835268  0.0000000000000000  0.0054618020197150
 -0.0000000000000000  0.0000000000000000  0.0000000000000000
  0.2580195779374517  0.0000000000000000  0.2409856450248697
  0.7419803920625531 -0.0000000000000000  0.7590143399751328
  0.1081078509659241  0.0000000000000000  0.7702728067852557
  0.8918921640340737  0.0000000000000000  0.2297271632147491
  0.5000000000000000  0.5000000000000000  0.0000000000000000
  0.7580196079374469  0.5000000000000000  0.2409856450248697
  0.2419804220625484  0.5000000000000000  0.7590143399751328
  0.6081078359659263  0.5000000000000000  0.7702728067852557
  0.3918921640340736  0.5000000000000000  0.2297271632147491

  0.00000000E+00  0.00000000E+00  0.00000000E+00
  0.00000000E+00  0.00000000E+00  0.00000000E+00
  0.00000000E+00  0.00000000E+00  0.00000000E+00
  0.00000000E+00  0.00000000E+00  0.00000000E+00
  0.00000000E+00  0.00000000E+00  0.00000000E+00
  0.00000000E+00  0.00000000E+00  0.00000000E+00
  0.00000000E+00  0.00000000E+00  0.00000000E+00
  0.00000000E+00  0.00000000E+00  0.00000000E+00
  0.00000000E+00  0.00000000E+00  0.00000000E+00
  0.00000000E+00  0.00000000E+00  0.00000000E+00
  0.00000000E+00  0.00000000E+00  0.00000000E+00
  0.00000000E+00  0.00000000E+00  0.00000000E+00
  0.00000000E+00  0.00000000E+00  0.00000000E+00
  0.00000000E+00  0.00000000E+00  0.00000000E+00
  0.00000000E+00  0.00000000E+00  0.00000000E+00
  0.00000000E+00  0.00000000E+00  0.00000000E+00
  0.00000000E+00  0.00000000E+00  0.00000000E+00
  0.00000000E+00  0.00000000E+00  0.00000000E+00
  0.00000000E+00  0.00000000E+00  0.00000000E+00
  0.00000000E+00  0.00000000E+00  0.00000000E+00
