AlCu                                    
   1.0000000000000000     
    12.1197733607601492    0.0000000000000000    0.0087393564045552
     0.0000000000000000    4.1047318575138929    0.0000000000000000
    -3.9737114122694983    0.0000000000000000    5.7985554269007027
   Al   Cu
    10    10
Direct
  0.5000000000000000  0.0000000000000000  0.5000000000000000
  0.1554503918010808 -0.0000000000000000  0.4613185888724400
  0.8445495931989144 -0.0000000000000000  0.5386813821275611
  0.8770063186741408  0.5000000000000000  0.9958220981094189
  0.1229936743258550  0.5000000000000000  0.0041778778905792
 -0.0000000000000000  0.5000000000000000  0.5000000000000000
  0.6554504068010856  0.5000000000000000  0.4613185888724400
  0.3445496231989169  0.5000000000000000  0.5386813821275611
  0.3770063186741480 -0.0000000000000000  0.9958220981094189
  0.6229936813258592 -0.0000000000000000  0.0041778778905792
 -0.0000000000000000  0.0000000000000000 -0.0000000000000000
  0.2580683396889296  0.0000000000000000  0.2423090264223881
  0.7419316303110751  0.0000000000000000  0.7576909585776143
  0.1085820734297639  0.0000000000000000  0.7720774574260889
  0.8914179415702338  0.0000000000000000  0.2279225125739158
  0.5000000000000000  0.5000000000000000 -0.0000000000000000
  0.7580683696889249  0.5000000000000000  0.2423090264223881
  0.2419316603110704  0.5000000000000000  0.7576909585776143
  0.6085820584297662  0.5000000000000000  0.7720774574260889
  0.3914179415702337  0.5000000000000000  0.2279225125739158

  0.00000000E+00  0.00000000E+00  0.00000000E+00
  0.00000000E+00  0.00000000E+00  0.00000000E+00
  0.00000000E+00  0.00000000E+00  0.00000000E+00
  0.00000000E+00  0.00000000E+00  0.00000000E+00
  0.00000000E+00  0.00000000E+00  0.00000000E+00
  0.00000000E+00  0.00000000E+00  0.00000000E+00
  0.00000000E+00  0.00000000E+00  0.00000000E+00
  0.00000000E+00  0.00000000E+00  0.00000000E+00
  0.00000000E+00  0.00000000E+00  0.00000000E+00
  0.00000000E+00  0.00000000E+00  0.00000000E+00
  0.00000000E+00  0.00000000E+00  0.00000000E+00
  0.00000000E+00  0.00000000E+00  0.00000000E+00
  0.00000000E+00  0.00000000E+00  0.00000000E+00
  0.00000000E+00  0.00000000E+00  0.00000000E+00
  0.00000000E+00  0.00000000E+00  0.00000000E+00
  0.00000000E+00  0.00000000E+00  0.00000000E+00
  0.00000000E+00  0.00000000E+00  0.00000000E+00
  0.00000000E+00  0.00000000E+00  0.00000000E+00
  0.00000000E+00  0.00000000E+00  0.00000000E+00
  0.00000000E+00  0.00000000E+00  0.00000000E+00
