Al2O3_R-3cH                             
   1.0000000000000000     
     4.8027765869102357    0.0240138829339610    0.0000000000000000
    -2.3805916608410640    4.1473195915482828    0.0000000000000000
     0.0000000000000000    0.0000000000000000   13.2336527555454140
   Al   O 
    12    18
Direct
 -0.0006037895515259  0.0003646663297470  0.3519402061458838
  0.0006037895515259 -0.0003646663297470  0.6480597638541210
  0.0009610189142003  0.0003754900308042  0.1480593208836599
 -0.0009610189142003 -0.0003754900308042  0.8519407091163356
  0.6660628974484772  0.3336980093297466  0.6852735491458832
  0.6672704765515285  0.3329686766702526  0.9813931368541231
  0.6676277059142032  0.3337088330308038  0.4813926638836667
  0.6657056680858026  0.3329578529691954  0.1852739631163384
  0.3327295534484737  0.6670313533297499  0.0186068631458770
  0.3339371325515255  0.6663020206702558  0.3147264508541166
  0.3342943619142000  0.6670421770308070  0.8147259778836602
  0.3323723240857993  0.6662911969691987  0.5186073361163335
  0.3060598434208147 -0.0004569271430278  0.2498289585792703
  0.6939401565791853  0.0004569271430278  0.7501710414207298
 -0.0002355174495333  0.3063684776884090  0.2500833530744344
  0.0002355174495333  0.6936315223115906  0.7499166469255658
  0.6940080924792822  0.6937864686113192  0.2500876701533606
  0.3059919075207180  0.3062135313886807  0.7499123298466392
  0.9727265304208176  0.3328764158569718  0.5831622715792674
  0.3606068135791857  0.3337902701430275  0.0835043774207323
  0.6664311695504693  0.6397017916884101  0.5834166660744313
  0.6669022044495364  0.0269648563115934  0.0832499829255682
  0.3606747494792824  0.0271198026113216  0.5834209831533579
  0.9726585945207207  0.6395468453886816  0.0832456658466419
  0.6393931574208155  0.6662097598569748  0.9164956455792731
  0.0272734905791877  0.6671236141430309  0.4168376984207301
  0.3330978255504662  0.9730351646884122  0.9167500400744371
  0.3335688604495330  0.3602981793115914  0.4165833039255660
  0.0273414264792845  0.3604531256113196  0.9167543571533636
  0.6393252215207186  0.9728802183886837  0.4165789868466397

  0.00000000E+00  0.00000000E+00  0.00000000E+00
  0.00000000E+00  0.00000000E+00  0.00000000E+00
  0.00000000E+00  0.00000000E+00  0.00000000E+00
  0.00000000E+00  0.00000000E+00  0.00000000E+00
  0.00000000E+00  0.00000000E+00  0.00000000E+00
  0.00000000E+00  0.00000000E+00  0.00000000E+00
  0.00000000E+00  0.00000000E+00  0.00000000E+00
  0.00000000E+00  0.00000000E+00  0.00000000E+00
  0.00000000E+00  0.00000000E+00  0.00000000E+00
  0.00000000E+00  0.00000000E+00  0.00000000E+00
  0.00000000E+00  0.00000000E+00  0.00000000E+00
  0.00000000E+00  0.00000000E+00  0.00000000E+00
  0.00000000E+00  0.00000000E+00  0.00000000E+00
  0.00000000E+00  0.00000000E+00  0.00000000E+00
  0.00000000E+00  0.00000000E+00  0.00000000E+00
  0.00000000E+00  0.00000000E+00  0.00000000E+00
  0.00000000E+00  0.00000000E+00  0.00000000E+00
  0.00000000E+00  0.00000000E+00  0.00000000E+00
  0.00000000E+00  0.00000000E+00  0.00000000E+00
  0.00000000E+00  0.00000000E+00  0.00000000E+00
  0.00000000E+00  0.00000000E+00  0.00000000E+00
  0.00000000E+00  0.00000000E+00  0.00000000E+00
  0.00000000E+00  0.00000000E+00  0.00000000E+00
  0.00000000E+00  0.00000000E+00  0.00000000E+00
  0.00000000E+00  0.00000000E+00  0.00000000E+00
  0.00000000E+00  0.00000000E+00  0.00000000E+00
  0.00000000E+00  0.00000000E+00  0.00000000E+00
  0.00000000E+00  0.00000000E+00  0.00000000E+00
  0.00000000E+00  0.00000000E+00  0.00000000E+00
  0.00000000E+00  0.00000000E+00  0.00000000E+00
