Sn4                                     
   1.0000000000000000     
     5.8254111975850442   -0.0594429714039290    0.0000000000000000
    -0.0594429714039290    5.9442971403929024    0.0000000000000000
     0.0000000000000000    0.0000000000000000    3.1478079406513335
   Sn
     4
Direct
  0.0000000000000000  0.0000000000000000  0.4795934331979264
  0.5000000000000000 -0.0000000000000000  0.7704065668020735
  0.5000000000000000  0.5000000000000000 -0.0204065668020736
 -0.0000000000000000  0.5000000000000000  0.2704065668020736

  0.00000000E+00  0.00000000E+00  0.00000000E+00
  0.00000000E+00  0.00000000E+00  0.00000000E+00
  0.00000000E+00  0.00000000E+00  0.00000000E+00
  0.00000000E+00  0.00000000E+00  0.00000000E+00
