Al2O3_R-3cH                             
   1.0000000000000000     
     4.8027765869102383   -0.0000000000005843    0.0000000000000030
    -2.4013882935061432    4.1177332676856553   -0.0207966326650791
     0.0000000000000000   -0.0655131324531951   13.1026264906390235
   Al   O 
    12    18
Direct
 -0.0010158594051511 -0.0015068107607920  0.3520366568815860
  0.0010158594051511  0.0015068107607920  0.6479633131184184
  0.0004909513556409  0.0015068107607920  0.1479633431184141
 -0.0004909513556409 -0.0015068107607920  0.8520366868815816
  0.6656508275948519  0.3318265322392077  0.6853699998815859
  0.6676825464051538  0.3348401537607915  0.9812966861184205
  0.6671576383556440  0.3348401537607915  0.4812966861184207
  0.6661757356443617  0.3318265322392077  0.1853699408815842
  0.3323174835948485  0.6651598762392107  0.0187033138815793
  0.3343492024051508  0.6681734977607950  0.3146300001184144
  0.3338242943556405  0.6681734977607950  0.8146300001184141
  0.3328423916443587  0.6651598762392107  0.5187033138815795
  0.3061572519645478  0.0000000000000000  0.2500000000000000
  0.6938427480354526  0.0000000000000000  0.7500000000000000
  0.0001641726300822  0.3065739473524280  0.2498203534030302
 -0.0001641726300822  0.6934260526475721  0.7501796465969698
  0.6935902252776543  0.6934260526475721  0.2501796465969699
  0.3064097747223457  0.3065739473524280  0.7498203534030302
  0.9728239389645502  0.3333333429999996  0.5833333129999971
  0.3605094050354526  0.3333333429999996  0.0833333360000026
  0.6668308596300851  0.6399072613524287  0.5831536664030273
  0.6665025143699206  0.0267593866475745  0.0835129825969724
  0.3602568822776547  0.0267593866475745  0.5835129595969669
  0.9730764617223485  0.6399072613524287  0.0831536894030328
  0.6394905659645481  0.6666666870000029  0.9166666870000029
  0.0271760820354548  0.6666666870000029  0.4166666570000004
  0.3334975156300818  0.9732406343524308  0.9164870404030331
  0.3331691703699174  0.3600927096475723  0.4168463035969703
  0.0269235592776567  0.3600927096475723  0.9168463335969727
  0.6397430887223464  0.9732406343524308  0.4164870104030305

  0.00000000E+00  0.00000000E+00  0.00000000E+00
  0.00000000E+00  0.00000000E+00  0.00000000E+00
  0.00000000E+00  0.00000000E+00  0.00000000E+00
  0.00000000E+00  0.00000000E+00  0.00000000E+00
  0.00000000E+00  0.00000000E+00  0.00000000E+00
  0.00000000E+00  0.00000000E+00  0.00000000E+00
  0.00000000E+00  0.00000000E+00  0.00000000E+00
  0.00000000E+00  0.00000000E+00  0.00000000E+00
  0.00000000E+00  0.00000000E+00  0.00000000E+00
  0.00000000E+00  0.00000000E+00  0.00000000E+00
  0.00000000E+00  0.00000000E+00  0.00000000E+00
  0.00000000E+00  0.00000000E+00  0.00000000E+00
  0.00000000E+00  0.00000000E+00  0.00000000E+00
  0.00000000E+00  0.00000000E+00  0.00000000E+00
  0.00000000E+00  0.00000000E+00  0.00000000E+00
  0.00000000E+00  0.00000000E+00  0.00000000E+00
  0.00000000E+00  0.00000000E+00  0.00000000E+00
  0.00000000E+00  0.00000000E+00  0.00000000E+00
  0.00000000E+00  0.00000000E+00  0.00000000E+00
  0.00000000E+00  0.00000000E+00  0.00000000E+00
  0.00000000E+00  0.00000000E+00  0.00000000E+00
  0.00000000E+00  0.00000000E+00  0.00000000E+00
  0.00000000E+00  0.00000000E+00  0.00000000E+00
  0.00000000E+00  0.00000000E+00  0.00000000E+00
  0.00000000E+00  0.00000000E+00  0.00000000E+00
  0.00000000E+00  0.00000000E+00  0.00000000E+00
  0.00000000E+00  0.00000000E+00  0.00000000E+00
  0.00000000E+00  0.00000000E+00  0.00000000E+00
  0.00000000E+00  0.00000000E+00  0.00000000E+00
  0.00000000E+00  0.00000000E+00  0.00000000E+00
