Si8                                     
   1.0000000000000000     
     5.3801090371416009   -0.0271722678643515    0.0000000000000000
    -0.0271722678643515    5.4344535728703036    0.0000000000000000
     0.0000000000000000    0.0000000000000000    5.4344535728703036
   Si
     8
Direct
 -0.0000000000000000  0.0000000000000000 -0.0006961004399191
  0.7500000000000000  0.7500000000000000  0.2506961004399191
 -0.0000000000000000  0.5000000000000000  0.4993038995600809
  0.7500000000000000  0.2500000000000000  0.7506961004399191
  0.5000000000000000  0.0000000000000000  0.4993038995600809
  0.2500000000000000  0.7500000000000000  0.7506961004399191
  0.5000000000000000  0.5000000000000000 -0.0006961004399191
  0.2500000000000000  0.2500000000000000  0.2506961004399191

  0.00000000E+00  0.00000000E+00  0.00000000E+00
  0.00000000E+00  0.00000000E+00  0.00000000E+00
  0.00000000E+00  0.00000000E+00  0.00000000E+00
  0.00000000E+00  0.00000000E+00  0.00000000E+00
  0.00000000E+00  0.00000000E+00  0.00000000E+00
  0.00000000E+00  0.00000000E+00  0.00000000E+00
  0.00000000E+00  0.00000000E+00  0.00000000E+00
  0.00000000E+00  0.00000000E+00  0.00000000E+00
