AlCu                                    
   1.0000000000000000     
    12.1197733607601492    0.0000000000000000    0.0084823165103036
     0.0000000000000000    4.1047318575138929    0.0000000000000000
    -3.9737114122694983    0.0000000000000000    5.6280096790506819
   Al   Cu
    10    10
Direct
  0.5000000000000000 -0.0000000000000000  0.5000000000000000
  0.1562103686429949 -0.0000000000000000  0.4615389319652122
  0.8437896163570003 -0.0000000000000000  0.5384610390347888
  0.8784545260526845  0.5000000000000000  0.9949986914398032
  0.1215454669473113  0.5000000000000000  0.0050012845601947
  0.0000000000000000  0.5000000000000000  0.5000000000000000
  0.6562103836429997  0.5000000000000000  0.4615389319652122
  0.3437896463570028  0.5000000000000000  0.5384610390347888
  0.3784545260526916 -0.0000000000000000  0.9949986914398032
  0.6215454739473155  0.0000000000000000  0.0050012845601947
  0.0000000000000000 -0.0000000000000000  0.0000000000000000
  0.2580278451474681  0.0000000000000000  0.2413712811925960
  0.7419721248525366  0.0000000000000000  0.7586287038074060
  0.1084195998470788 -0.0000000000000000  0.7710242423193797
  0.8915804151529187 -0.0000000000000000  0.2289757276806249
  0.5000000000000000  0.5000000000000000  0.0000000000000000
  0.7580278751474634  0.5000000000000000  0.2413712811925960
  0.2419721548525320  0.5000000000000000  0.7586287038074060
  0.6084195848470813  0.5000000000000000  0.7710242423193797
  0.3915804151529189  0.5000000000000000  0.2289757276806249

  0.00000000E+00  0.00000000E+00  0.00000000E+00
  0.00000000E+00  0.00000000E+00  0.00000000E+00
  0.00000000E+00  0.00000000E+00  0.00000000E+00
  0.00000000E+00  0.00000000E+00  0.00000000E+00
  0.00000000E+00  0.00000000E+00  0.00000000E+00
  0.00000000E+00  0.00000000E+00  0.00000000E+00
  0.00000000E+00  0.00000000E+00  0.00000000E+00
  0.00000000E+00  0.00000000E+00  0.00000000E+00
  0.00000000E+00  0.00000000E+00  0.00000000E+00
  0.00000000E+00  0.00000000E+00  0.00000000E+00
  0.00000000E+00  0.00000000E+00  0.00000000E+00
  0.00000000E+00  0.00000000E+00  0.00000000E+00
  0.00000000E+00  0.00000000E+00  0.00000000E+00
  0.00000000E+00  0.00000000E+00  0.00000000E+00
  0.00000000E+00  0.00000000E+00  0.00000000E+00
  0.00000000E+00  0.00000000E+00  0.00000000E+00
  0.00000000E+00  0.00000000E+00  0.00000000E+00
  0.00000000E+00  0.00000000E+00  0.00000000E+00
  0.00000000E+00  0.00000000E+00  0.00000000E+00
  0.00000000E+00  0.00000000E+00  0.00000000E+00
