Al2O3_R-3cH                             
   1.0000000000000000     
     4.8027765869102383   -0.0000000000005902    0.0000000000000000
    -2.4013882935061432    4.1593265330158138    0.0000000000000000
     0.0000000000000000    0.0000000000000000   13.1026264906390235
   Al   O 
    12    18
Direct
  0.0000000000000000 -0.0000000000000000  0.3522206411720138
  0.0000000000000000 -0.0000000000000000  0.6477793288279907
  0.0000000000000000 -0.0000000000000000  0.1477793588279861
  0.0000000000000000 -0.0000000000000000  0.8522206711720093
  0.6666666870000029  0.3333333429999996  0.6855539841720135
  0.6666666870000029  0.3333333429999996  0.9811127018279928
  0.6666666870000029  0.3333333429999996  0.4811127018279929
  0.6666666870000029  0.3333333429999996  0.1855539251720122
  0.3333333429999996  0.6666666870000029  0.0188872981720072
  0.3333333429999996  0.6666666870000029  0.3144460158279865
  0.3333333429999996  0.6666666870000029  0.8144460158279865
  0.3333333429999996  0.6666666870000029  0.5188872981720072
  0.3061111788382253 -0.0000000000000000  0.2500000000000000
  0.6938888211617747 -0.0000000000000000  0.7500000000000000
 -0.0000000000000000  0.3061111788382253  0.2500000000000000
  0.0000000000000000  0.6938888211617747  0.7500000000000000
  0.6938888211617747  0.6938888211617747  0.2500000000000000
  0.3061111788382253  0.3061111788382253  0.7500000000000000
  0.9727778658382281  0.3333333429999996  0.5833333129999971
  0.3605554781617751  0.3333333429999996  0.0833333360000026
  0.6666666870000029  0.6394444928382260  0.5833333129999971
  0.6666666870000029  0.0272221551617772  0.0833333360000026
  0.3605554781617751  0.0272221551617772  0.5833333129999971
  0.9727778658382281  0.6394444928382260  0.0833333360000026
  0.6394444928382260  0.6666666870000029  0.9166666870000029
  0.0272221551617772  0.6666666870000029  0.4166666570000004
  0.3333333429999996  0.9727778658382281  0.9166666870000029
  0.3333333429999996  0.3605554781617751  0.4166666570000004
  0.0272221551617772  0.3605554781617751  0.9166666870000029
  0.6394444928382260  0.9727778658382281  0.4166666570000004

  0.00000000E+00  0.00000000E+00  0.00000000E+00
  0.00000000E+00  0.00000000E+00  0.00000000E+00
  0.00000000E+00  0.00000000E+00  0.00000000E+00
  0.00000000E+00  0.00000000E+00  0.00000000E+00
  0.00000000E+00  0.00000000E+00  0.00000000E+00
  0.00000000E+00  0.00000000E+00  0.00000000E+00
  0.00000000E+00  0.00000000E+00  0.00000000E+00
  0.00000000E+00  0.00000000E+00  0.00000000E+00
  0.00000000E+00  0.00000000E+00  0.00000000E+00
  0.00000000E+00  0.00000000E+00  0.00000000E+00
  0.00000000E+00  0.00000000E+00  0.00000000E+00
  0.00000000E+00  0.00000000E+00  0.00000000E+00
  0.00000000E+00  0.00000000E+00  0.00000000E+00
  0.00000000E+00  0.00000000E+00  0.00000000E+00
  0.00000000E+00  0.00000000E+00  0.00000000E+00
  0.00000000E+00  0.00000000E+00  0.00000000E+00
  0.00000000E+00  0.00000000E+00  0.00000000E+00
  0.00000000E+00  0.00000000E+00  0.00000000E+00
  0.00000000E+00  0.00000000E+00  0.00000000E+00
  0.00000000E+00  0.00000000E+00  0.00000000E+00
  0.00000000E+00  0.00000000E+00  0.00000000E+00
  0.00000000E+00  0.00000000E+00  0.00000000E+00
  0.00000000E+00  0.00000000E+00  0.00000000E+00
  0.00000000E+00  0.00000000E+00  0.00000000E+00
  0.00000000E+00  0.00000000E+00  0.00000000E+00
  0.00000000E+00  0.00000000E+00  0.00000000E+00
  0.00000000E+00  0.00000000E+00  0.00000000E+00
  0.00000000E+00  0.00000000E+00  0.00000000E+00
  0.00000000E+00  0.00000000E+00  0.00000000E+00
  0.00000000E+00  0.00000000E+00  0.00000000E+00
