Al2O3_R-3cH                             
   1.0000000000000000     
     4.8027765869102383   -0.0000000000005902   -0.0000000000000000
    -2.4013882935061432    4.1593265330158138   -0.0000000000000000
    -0.0000000000000000    0.0000000000000000   13.1026264906390235
   Al   O 
    12    18
Direct
 -0.0000000000000000  0.0000000000000000  0.3522167234609724
 -0.0000000000000000  0.0000000000000000  0.6477832465390322
 -0.0000000000000000  0.0000000000000000  0.1477832765390275
 -0.0000000000000000  0.0000000000000000  0.8522167534609678
  0.6666666870000029  0.3333333429999996  0.6855500664609721
  0.6666666870000029  0.3333333429999996  0.9811166195390343
  0.6666666870000029  0.3333333429999996  0.4811166195390343
  0.6666666870000029  0.3333333429999996  0.1855500074609708
  0.3333333429999996  0.6666666870000029  0.0188833804609658
  0.3333333429999996  0.6666666870000029  0.3144499335390279
  0.3333333429999996  0.6666666870000029  0.8144499335390279
  0.3333333429999996  0.6666666870000029  0.5188833804609657
  0.3061176122518157 -0.0000000000000000  0.2500000000000000
  0.6938823877481841  0.0000000000000000  0.7500000000000000
  0.0000000000000000  0.3061176122518157  0.2500000000000000
 -0.0000000000000000  0.6938823877481841  0.7500000000000000
  0.6938823877481841  0.6938823877481841  0.2500000000000000
  0.3061176122518157  0.3061176122518157  0.7500000000000000
  0.9727842992518188  0.3333333429999996  0.5833333129999971
  0.3605490447481847  0.3333333429999996  0.0833333360000026
  0.6666666870000029  0.6394509262518167  0.5833333129999971
  0.6666666870000029  0.0272157217481867  0.0833333360000026
  0.3605490447481847  0.0272157217481867  0.5833333129999971
  0.9727842992518188  0.6394509262518167  0.0833333360000026
  0.6394509262518167  0.6666666870000029  0.9166666870000029
  0.0272157217481867  0.6666666870000029  0.4166666570000004
  0.3333333429999996  0.9727842992518188  0.9166666870000029
  0.3333333429999996  0.3605490447481847  0.4166666570000004
  0.0272157217481867  0.3605490447481847  0.9166666870000029
  0.6394509262518167  0.9727842992518188  0.4166666570000004

