Mg                                      
   1.0000000000000000     
     6.5350931929520675   -0.0000000257742783   -0.0000000002577428
    -3.2675503090978597    5.5485896494546969    0.0554858964945470
     0.0000000000000000    0.1029797289755082   10.2979728975508227
   Mg
    16
Direct
  0.1655205667297258  0.3310416394594509  0.1250046239487337
  0.1655205667297258  0.3310416394594509  0.6250046239487338
  0.1655205667297258  0.8310416394594509  0.1250046239487337
  0.1655205667297258  0.8310416394594509  0.6250046239487338
  0.6655205817297236  0.3310416394594509  0.1250046239487337
  0.6655205817297236  0.3310416394594509  0.6250046239487338
  0.6655205817297236  0.8310416394594509  0.1250046239487337
  0.6655205817297236  0.8310416394594509  0.6250046239487338
  0.3344794182702765  0.1689583455405514  0.3749953760512662
  0.3344794182702765  0.1689583455405514  0.8749953760512662
  0.3344794182702765  0.6689583605405491  0.3749953760512662
  0.3344794182702765  0.6689583605405491  0.8749953760512662
  0.8344794182702764  0.1689583455405514  0.3749953760512662
  0.8344794182702764  0.1689583455405514  0.8749953760512662
  0.8344794182702764  0.6689583605405491  0.3749953760512662
  0.8344794182702764  0.6689583605405491  0.8749953760512662

  0.00000000E+00  0.00000000E+00  0.00000000E+00
  0.00000000E+00  0.00000000E+00  0.00000000E+00
  0.00000000E+00  0.00000000E+00  0.00000000E+00
  0.00000000E+00  0.00000000E+00  0.00000000E+00
  0.00000000E+00  0.00000000E+00  0.00000000E+00
  0.00000000E+00  0.00000000E+00  0.00000000E+00
  0.00000000E+00  0.00000000E+00  0.00000000E+00
  0.00000000E+00  0.00000000E+00  0.00000000E+00
  0.00000000E+00  0.00000000E+00  0.00000000E+00
  0.00000000E+00  0.00000000E+00  0.00000000E+00
  0.00000000E+00  0.00000000E+00  0.00000000E+00
  0.00000000E+00  0.00000000E+00  0.00000000E+00
  0.00000000E+00  0.00000000E+00  0.00000000E+00
  0.00000000E+00  0.00000000E+00  0.00000000E+00
  0.00000000E+00  0.00000000E+00  0.00000000E+00
  0.00000000E+00  0.00000000E+00  0.00000000E+00
