Mg                  
   1.000000000000000
   6.5350931929520675       -2.5774278300000001E-008  -2.5774278299999999E-010
  -3.2675503090978597        5.5485896494546969        5.5485896494546973E-002
   0.0000000000000000       0.10297972897550822        10.297972897550823     
   Mg                                                                           
    16                                                                          
Direct                                                                          
  0.16666649300000100       0.33333349200000129       0.12500000000000000     
  0.16666649300000100       0.33333349200000129       0.62500000000000000     
  0.16666649300000100       0.83333349200000129       0.12500000000000000     
  0.16666649300000100       0.83333349200000129       0.62500000000000000     
  0.66666650799999871       0.33333349200000129       0.12500000000000000     
  0.66666650799999871       0.33333349200000129       0.62500000000000000     
  0.66666650799999871       0.83333349200000129       0.12500000000000000     
  0.66666650799999871       0.83333349200000129       0.62500000000000000     
  0.33333349200000129       0.16666649300000100       0.37500000000000000     
  0.33333349200000129       0.16666649300000100       0.87500000000000000     
  0.33333349200000129       0.66666650799999871       0.37500000000000000     
  0.33333349200000129       0.66666650799999871       0.87500000000000000     
  0.83333349200000129       0.16666649300000100       0.37500000000000000     
  0.83333349200000129       0.16666649300000100       0.87500000000000000     
  0.83333349200000129       0.66666650799999871       0.37500000000000000     
  0.83333349200000129       0.66666650799999871       0.87500000000000000     
