Al2O3_R-3cH                             
   1.0000000000000000     
     4.8027765869102321    0.0480277658685122    0.0000000000000000
    -2.3597950281759852    4.1353126500807527    0.0000000000000000
     0.0000000000000000    0.0000000000000000   13.3646790204518044
   Al   O 
    12    18
Direct
 -0.0012654573994022  0.0006987330838076  0.3516679384913541
  0.0012654573994022 -0.0006987330838076  0.6483320315086505
  0.0019423733090488  0.0007471258735953  0.1483295716991136
 -0.0019423733090488 -0.0007471258735953  0.8516704583008816
  0.6654012296006008  0.3340320760838073  0.6850012814913538
  0.6679321443994050  0.3326346099161919  0.9816654045086526
  0.6686090603090517  0.3340804688735949  0.4816629146991204
  0.6647243136909541  0.3325862171264043  0.1850037123008846
  0.3320678856005974  0.6673654200838104  0.0183345954913474
  0.3345988003994018  0.6659679539161953  0.3149987185086462
  0.3352757163090485  0.6674138128735981  0.8149962286991141
  0.3313909696909507  0.6659195611264076  0.5183370853008795
  0.3060194569400431 -0.0009060539181146  0.2496704769443741
  0.6939805430599570  0.0009060539181146  0.7503295230556261
 -0.0004875341372234  0.3065903834693785  0.2501568928630614
  0.0004875341372234  0.6934096165306215  0.7498431071369387
  0.6940374975953493  0.6936168105745969  0.2501721076817852
  0.3059625024046509  0.3063831894254029  0.7498278923182148
  0.9726861439400458  0.3324272890818850  0.5830037899443711
  0.3606472000599573  0.3342393969181142  0.0836628590556285
  0.6661791528627796  0.6399236974693793  0.5834902058630584
  0.6671542211372261  0.0267429505306238  0.0831764431369412
  0.3607041545953495  0.0269501445745995  0.5835054206817823
  0.9726291894046536  0.6397165034254039  0.0831612283182174
  0.6393527709400437  0.6657606330818884  0.9163371639443768
  0.0273138770599593  0.6675727409181174  0.4169961800556263
  0.3328458088627762  0.9732570704693814  0.9168235798630642
  0.3338208771372230  0.3600762735306219  0.4165097641369390
  0.0273708315953516  0.3602834675745974  0.9168387946817881
  0.6392958164046515  0.9730498764254060  0.4164945493182152

  0.00000000E+00  0.00000000E+00  0.00000000E+00
  0.00000000E+00  0.00000000E+00  0.00000000E+00
  0.00000000E+00  0.00000000E+00  0.00000000E+00
  0.00000000E+00  0.00000000E+00  0.00000000E+00
  0.00000000E+00  0.00000000E+00  0.00000000E+00
  0.00000000E+00  0.00000000E+00  0.00000000E+00
  0.00000000E+00  0.00000000E+00  0.00000000E+00
  0.00000000E+00  0.00000000E+00  0.00000000E+00
  0.00000000E+00  0.00000000E+00  0.00000000E+00
  0.00000000E+00  0.00000000E+00  0.00000000E+00
  0.00000000E+00  0.00000000E+00  0.00000000E+00
  0.00000000E+00  0.00000000E+00  0.00000000E+00
  0.00000000E+00  0.00000000E+00  0.00000000E+00
  0.00000000E+00  0.00000000E+00  0.00000000E+00
  0.00000000E+00  0.00000000E+00  0.00000000E+00
  0.00000000E+00  0.00000000E+00  0.00000000E+00
  0.00000000E+00  0.00000000E+00  0.00000000E+00
  0.00000000E+00  0.00000000E+00  0.00000000E+00
  0.00000000E+00  0.00000000E+00  0.00000000E+00
  0.00000000E+00  0.00000000E+00  0.00000000E+00
  0.00000000E+00  0.00000000E+00  0.00000000E+00
  0.00000000E+00  0.00000000E+00  0.00000000E+00
  0.00000000E+00  0.00000000E+00  0.00000000E+00
  0.00000000E+00  0.00000000E+00  0.00000000E+00
  0.00000000E+00  0.00000000E+00  0.00000000E+00
  0.00000000E+00  0.00000000E+00  0.00000000E+00
  0.00000000E+00  0.00000000E+00  0.00000000E+00
  0.00000000E+00  0.00000000E+00  0.00000000E+00
  0.00000000E+00  0.00000000E+00  0.00000000E+00
  0.00000000E+00  0.00000000E+00  0.00000000E+00
