AlCu                                    
   1.0000000000000000     
    11.8773778935449457   -0.0000856799647505    0.0085679964750541
     0.0000000000000000    4.1047318575138929   -0.0410473185751389
    -3.8942371840241083   -0.0568485826166736    5.6848582616673555
   Al   Cu
    10    10
Direct
  0.5000000000000000 -0.0000000000000000  0.5000000000000000
  0.1567881044253126 -0.0029083372326360  0.4625321510144994
  0.8432118805746829  0.0029083372326361  0.5374678199855015
  0.8779359312188573  0.4996537410401153  0.9958128845684782
  0.1220640617811385  0.5003462589598847  0.0041870914315200
 -0.0000000000000000  0.5000000000000000  0.5000000000000000
  0.6567881194253171  0.4970916627673640  0.4625321510144994
  0.3432119105746853  0.5029083372326359  0.5374678199855015
  0.3779359312188645 -0.0003462589598847  0.9958128845684782
  0.6220640687811427  0.0003462589598847  0.0041870914315200
 -0.0000000000000000 -0.0000000000000000  0.0000000000000000
  0.2578710972064436  0.0021129302700552  0.2393803270194955
  0.7421288727935612 -0.0021129302700552  0.7606196579805067
  0.1080851520360695 -0.0004171112162496  0.7710008574910385
  0.8919148629639283  0.0004171112162496  0.2289991125089660
  0.5000000000000000  0.5000000000000000  0.0000000000000000
  0.7578711272064388  0.5021129302700553  0.2393803270194955
  0.2421289027935563  0.4978870697299447  0.7606196579805067
  0.6080851370360717  0.4995828887837504  0.7710008574910385
  0.3919148629639282  0.5004171112162495  0.2289991125089660

  0.00000000E+00  0.00000000E+00  0.00000000E+00
  0.00000000E+00  0.00000000E+00  0.00000000E+00
  0.00000000E+00  0.00000000E+00  0.00000000E+00
  0.00000000E+00  0.00000000E+00  0.00000000E+00
  0.00000000E+00  0.00000000E+00  0.00000000E+00
  0.00000000E+00  0.00000000E+00  0.00000000E+00
  0.00000000E+00  0.00000000E+00  0.00000000E+00
  0.00000000E+00  0.00000000E+00  0.00000000E+00
  0.00000000E+00  0.00000000E+00  0.00000000E+00
  0.00000000E+00  0.00000000E+00  0.00000000E+00
  0.00000000E+00  0.00000000E+00  0.00000000E+00
  0.00000000E+00  0.00000000E+00  0.00000000E+00
  0.00000000E+00  0.00000000E+00  0.00000000E+00
  0.00000000E+00  0.00000000E+00  0.00000000E+00
  0.00000000E+00  0.00000000E+00  0.00000000E+00
  0.00000000E+00  0.00000000E+00  0.00000000E+00
  0.00000000E+00  0.00000000E+00  0.00000000E+00
  0.00000000E+00  0.00000000E+00  0.00000000E+00
  0.00000000E+00  0.00000000E+00  0.00000000E+00
  0.00000000E+00  0.00000000E+00  0.00000000E+00
