AlCu                                    
   1.0000000000000000     
    12.1197733607601492    0.1211977336076015    0.0085679964750541
     0.0410473185751389    4.1868264946641709    0.0000000000000000
    -3.9737114122694983   -0.0397371141226950    5.6848582616673555
   Al   Cu
    10    10
Direct
  0.5000000000000000  0.0000000000000000  0.5000000000000000
  0.1570731805480202 -0.0001353948395939  0.4633033036846264
  0.8429268044519748  0.0001353948395939  0.5366966673153748
  0.8782277431928541  0.5006937075987470  0.9957441060897002
  0.1217722498071416  0.4993062924012531  0.0042558699102977
  0.0000000000000000  0.5000000000000000  0.5000000000000000
  0.6570731955480252  0.4998646051604062  0.4633033036846264
  0.3429268344519775  0.5001353948395938  0.5366966673153748
  0.3782277431928614  0.0006937075987469  0.9957441060897002
  0.6217722568071459 -0.0006937075987469  0.0042558699102977
  0.0000000000000000  0.0000000000000000  0.0000000000000000
  0.2576432962368716 -0.0002750417323385  0.2399128335871598
  0.7423566737631331  0.0002750417323385  0.7600871514128427
  0.1077725616836611 -0.0001504308965799  0.7703743215659217
  0.8922274533163366  0.0001504308965799  0.2296256484340830
  0.5000000000000000  0.5000000000000000  0.0000000000000000
  0.7576433262368669  0.4997249582676614  0.2399128335871598
  0.2423567037631284  0.5002750417323385  0.7600871514128427
  0.6077725466836634  0.4998495691034202  0.7703743215659217
  0.3922274533163365  0.5001504308965800  0.2296256484340830

  0.00000000E+00  0.00000000E+00  0.00000000E+00
  0.00000000E+00  0.00000000E+00  0.00000000E+00
  0.00000000E+00  0.00000000E+00  0.00000000E+00
  0.00000000E+00  0.00000000E+00  0.00000000E+00
  0.00000000E+00  0.00000000E+00  0.00000000E+00
  0.00000000E+00  0.00000000E+00  0.00000000E+00
  0.00000000E+00  0.00000000E+00  0.00000000E+00
  0.00000000E+00  0.00000000E+00  0.00000000E+00
  0.00000000E+00  0.00000000E+00  0.00000000E+00
  0.00000000E+00  0.00000000E+00  0.00000000E+00
  0.00000000E+00  0.00000000E+00  0.00000000E+00
  0.00000000E+00  0.00000000E+00  0.00000000E+00
  0.00000000E+00  0.00000000E+00  0.00000000E+00
  0.00000000E+00  0.00000000E+00  0.00000000E+00
  0.00000000E+00  0.00000000E+00  0.00000000E+00
  0.00000000E+00  0.00000000E+00  0.00000000E+00
  0.00000000E+00  0.00000000E+00  0.00000000E+00
  0.00000000E+00  0.00000000E+00  0.00000000E+00
  0.00000000E+00  0.00000000E+00  0.00000000E+00
  0.00000000E+00  0.00000000E+00  0.00000000E+00
