Al2O3_R-3cH         
   1.000000000000000
   4.8027765869102321        4.8027765868512186E-002   0.0000000000000000     
  -2.3597950281759852        4.1353126500807527        0.0000000000000000     
   0.0000000000000000        0.0000000000000000        13.364679020451804     
   Al   O                                                                       
    12    18                                                                    
Direct                                                                          
  -0.0000000000000000        0.0000000000000000       0.35221672346097238     
  -0.0000000000000000        0.0000000000000000       0.64778324653903219     
  -0.0000000000000000        0.0000000000000000       0.14778327653902751     
  -0.0000000000000000        0.0000000000000000       0.85221675346096781     
  0.66666668700000287       0.33333334299999962       0.68555006646097205     
  0.66666668700000287       0.33333334299999962       0.98111661953903428     
  0.66666668700000287       0.33333334299999962       0.48111661953903428     
  0.66666668700000287       0.33333334299999962       0.18555000746097081     
  0.33333334299999962       0.66666668700000287        1.8883380460965798E-002
  0.33333334299999962       0.66666668700000287       0.31444993353902789     
  0.33333334299999962       0.66666668700000287       0.81444993353902795     
  0.33333334299999962       0.66666668700000287       0.51888338046096572     
  0.30611761225181572       -0.0000000000000000       0.25000000000000000     
  0.69388238774818412        0.0000000000000000       0.75000000000000000     
   0.0000000000000000       0.30611761225181572       0.25000000000000000     
  -0.0000000000000000       0.69388238774818412       0.75000000000000000     
  0.69388238774818412       0.69388238774818412       0.25000000000000000     
  0.30611761225181572       0.30611761225181572       0.75000000000000000     
  0.97278429925181875       0.33333334299999962       0.58333331299999713     
  0.36054904474818472       0.33333334299999962        8.3333336000002603E-002
  0.66666668700000287       0.63945092625181665       0.58333331299999713     
  0.66666668700000287        2.7215721748186698E-002   8.3333336000002603E-002
  0.36054904474818472        2.7215721748186698E-002  0.58333331299999713     
  0.97278429925181875       0.63945092625181665        8.3333336000002603E-002
  0.63945092625181665       0.66666668700000287       0.91666668700000287     
   2.7215721748186698E-002  0.66666668700000287       0.41666665700000038     
  0.33333334299999962       0.97278429925181875       0.91666668700000287     
  0.33333334299999962       0.36054904474818472       0.41666665700000038     
   2.7215721748186698E-002  0.36054904474818472       0.91666668700000287     
  0.63945092625181665       0.97278429925181875       0.41666665700000038     
