TiSi2                                   
   1.0000000000000000     
     4.8107531746015759   -0.0240537658730079    0.0000000000000000
    -0.0413928303537222    8.2785660707444446    0.0000000000000000
     0.0000000000000000    0.0000000000000000    8.4795984890796205
   Ti   Si
     8    16
Direct
  0.0000000000000000 -0.0000000000000000  0.0004575945079002
  0.7500000000000000  0.7500000000000000  0.2495424054920998
  0.0000000000000000  0.5000000000000000  0.5004575945079003
  0.7500000000000000  0.2500000000000000  0.7495424054920997
  0.5000000000000000 -0.0000000000000000  0.5004575945079003
  0.2500000000000000  0.7500000000000000  0.7495424054920997
  0.5000000000000000  0.5000000000000000  0.0004575945079002
  0.2500000000000000  0.2500000000000000  0.2495424054920998
 -0.0002184426889543  0.3363726076891612  0.0000014414775467
  0.0002184426889543  0.6636274223108412  0.0000014414775467
  0.7497815573110460  0.0863725926891564  0.2499985585224533
  0.7502184426889540  0.4136273923108388  0.2499985585224533
 -0.0002184426889543  0.8363725776891588  0.5000014414775467
  0.0002184426889543  0.1636274073108436  0.5000014414775467
  0.7497815573110460  0.5863725776891588  0.7499985585224533
  0.7502184426889540  0.9136274223108412  0.7499985585224533
  0.4997815573110458  0.3363726076891612  0.5000014414775467
  0.5002184426889541  0.6636274223108412  0.5000014414775467
  0.2497815573110457  0.0863725926891564  0.7499985585224533
  0.2502184426889542  0.4136273923108388  0.7499985585224533
  0.4997815573110458  0.8363725776891588  0.0000014414775467
  0.5002184426889541  0.1636274073108436  0.0000014414775467
  0.2497815573110457  0.5863725776891588  0.2499985585224533
  0.2502184426889542  0.9136274223108412  0.2499985585224533

  0.00000000E+00  0.00000000E+00  0.00000000E+00
  0.00000000E+00  0.00000000E+00  0.00000000E+00
  0.00000000E+00  0.00000000E+00  0.00000000E+00
  0.00000000E+00  0.00000000E+00  0.00000000E+00
  0.00000000E+00  0.00000000E+00  0.00000000E+00
  0.00000000E+00  0.00000000E+00  0.00000000E+00
  0.00000000E+00  0.00000000E+00  0.00000000E+00
  0.00000000E+00  0.00000000E+00  0.00000000E+00
  0.00000000E+00  0.00000000E+00  0.00000000E+00
  0.00000000E+00  0.00000000E+00  0.00000000E+00
  0.00000000E+00  0.00000000E+00  0.00000000E+00
  0.00000000E+00  0.00000000E+00  0.00000000E+00
  0.00000000E+00  0.00000000E+00  0.00000000E+00
  0.00000000E+00  0.00000000E+00  0.00000000E+00
  0.00000000E+00  0.00000000E+00  0.00000000E+00
  0.00000000E+00  0.00000000E+00  0.00000000E+00
  0.00000000E+00  0.00000000E+00  0.00000000E+00
  0.00000000E+00  0.00000000E+00  0.00000000E+00
  0.00000000E+00  0.00000000E+00  0.00000000E+00
  0.00000000E+00  0.00000000E+00  0.00000000E+00
  0.00000000E+00  0.00000000E+00  0.00000000E+00
  0.00000000E+00  0.00000000E+00  0.00000000E+00
  0.00000000E+00  0.00000000E+00  0.00000000E+00
  0.00000000E+00  0.00000000E+00  0.00000000E+00
