AlCu                                    
   1.0000000000000000     
    12.1198162007425250    0.0000000000000000    0.0691668632788549
     0.0000000000000000    4.1047318575138929    0.0000000000000000
    -3.9452871209611615    0.0000000000000000    5.6649897046060076
   Al   Cu
    10    10
Direct
  0.5000000000000000 -0.0000000000000000  0.5000000000000000
  0.1558761830625722  0.0000000000000000  0.4610115994592817
  0.8441238019374230 -0.0000000000000000  0.5389883715407192
  0.8774195510107657  0.5000000000000000  0.9936635288724223
  0.1225804419892302  0.5000000000000000  0.0063364471275757
 -0.0000000000000000  0.5000000000000000  0.5000000000000000
  0.6558761980625770  0.5000000000000000  0.4610115994592817
  0.3441238319374256  0.5000000000000000  0.5389883715407192
  0.3774195510107727 -0.0000000000000000  0.9936635288724223
  0.6225804489892343 -0.0000000000000000  0.0063364471275757
 -0.0000000000000000 -0.0000000000000000 -0.0000000000000000
  0.2586115079231331  0.0000000000000000  0.2414654171267200
  0.7413884620768715 -0.0000000000000000  0.7585345678732824
  0.1081486485993917 -0.0000000000000000  0.7712283215403254
  0.8918513664006058  0.0000000000000000  0.2287716484596793
  0.5000000000000000  0.5000000000000000 -0.0000000000000000
  0.7586115379231285  0.5000000000000000  0.2414654171267200
  0.2413884920768669  0.5000000000000000  0.7585345678732824
  0.6081486335993942  0.5000000000000000  0.7712283215403254
  0.3918513664006060  0.5000000000000000  0.2287716484596793

  0.00000000E+00  0.00000000E+00  0.00000000E+00
  0.00000000E+00  0.00000000E+00  0.00000000E+00
  0.00000000E+00  0.00000000E+00  0.00000000E+00
  0.00000000E+00  0.00000000E+00  0.00000000E+00
  0.00000000E+00  0.00000000E+00  0.00000000E+00
  0.00000000E+00  0.00000000E+00  0.00000000E+00
  0.00000000E+00  0.00000000E+00  0.00000000E+00
  0.00000000E+00  0.00000000E+00  0.00000000E+00
  0.00000000E+00  0.00000000E+00  0.00000000E+00
  0.00000000E+00  0.00000000E+00  0.00000000E+00
  0.00000000E+00  0.00000000E+00  0.00000000E+00
  0.00000000E+00  0.00000000E+00  0.00000000E+00
  0.00000000E+00  0.00000000E+00  0.00000000E+00
  0.00000000E+00  0.00000000E+00  0.00000000E+00
  0.00000000E+00  0.00000000E+00  0.00000000E+00
  0.00000000E+00  0.00000000E+00  0.00000000E+00
  0.00000000E+00  0.00000000E+00  0.00000000E+00
  0.00000000E+00  0.00000000E+00  0.00000000E+00
  0.00000000E+00  0.00000000E+00  0.00000000E+00
  0.00000000E+00  0.00000000E+00  0.00000000E+00
