AlCu                                    
   1.0000000000000000     
    12.1197733607601492   -0.0605988668038007    0.0085679964750541
    -0.0205236592875695    4.0636845389387544    0.0000000000000000
    -3.9737114122694983    0.0198685570613475    5.6848582616673555
   Al   Cu
    10    10
Direct
  0.5000000000000000  0.0000000000000000  0.5000000000000000
  0.1551201570273629  0.0002088872314179  0.4600872360581121
  0.8448798279726322 -0.0002088872314179  0.5399127349418894
  0.8779289274784225  0.4996750717129110  0.9952818184021951
  0.1220710655215733  0.5003249282870892  0.0047181575978032
 -0.0000000000000000  0.5000000000000000  0.5000000000000000
  0.6551201720273678  0.5002088872314178  0.4600872360581121
  0.3448798579726347  0.4997911127685821  0.5399127349418894
  0.3779289274784299 -0.0003249282870890  0.9952818184021951
  0.6220710725215775  0.0003249282870890  0.0047181575978032
 -0.0000000000000000  0.0000000000000000 -0.0000000000000000
  0.2582209250062064 -0.0000679769158377  0.2427043703065421
  0.7417790449937983  0.0000679769158377  0.7572956146934601
  0.1091701091670382  0.0000792396755559  0.7723383513052526
  0.8908299058329593 -0.0000792396755559  0.2276616186947519
  0.5000000000000000  0.5000000000000000 -0.0000000000000000
  0.7582209550062017  0.4999320230841623  0.2427043703065421
  0.2417790749937936  0.5000679769158375  0.7572956146934601
  0.6091700941670407  0.5000792396755558  0.7723383513052526
  0.3908299058329595  0.4999207603244441  0.2276616186947519

  0.00000000E+00  0.00000000E+00  0.00000000E+00
  0.00000000E+00  0.00000000E+00  0.00000000E+00
  0.00000000E+00  0.00000000E+00  0.00000000E+00
  0.00000000E+00  0.00000000E+00  0.00000000E+00
  0.00000000E+00  0.00000000E+00  0.00000000E+00
  0.00000000E+00  0.00000000E+00  0.00000000E+00
  0.00000000E+00  0.00000000E+00  0.00000000E+00
  0.00000000E+00  0.00000000E+00  0.00000000E+00
  0.00000000E+00  0.00000000E+00  0.00000000E+00
  0.00000000E+00  0.00000000E+00  0.00000000E+00
  0.00000000E+00  0.00000000E+00  0.00000000E+00
  0.00000000E+00  0.00000000E+00  0.00000000E+00
  0.00000000E+00  0.00000000E+00  0.00000000E+00
  0.00000000E+00  0.00000000E+00  0.00000000E+00
  0.00000000E+00  0.00000000E+00  0.00000000E+00
  0.00000000E+00  0.00000000E+00  0.00000000E+00
  0.00000000E+00  0.00000000E+00  0.00000000E+00
  0.00000000E+00  0.00000000E+00  0.00000000E+00
  0.00000000E+00  0.00000000E+00  0.00000000E+00
  0.00000000E+00  0.00000000E+00  0.00000000E+00
