TiSi2                                   
   1.0000000000000000     
     4.8348069404745830    0.0000000000000000    0.0000000000000000
     0.0000000000000000    8.3199589010981665    0.0413928303537222
     0.0000000000000000    0.0428262549953516    8.5652509990703241
   Ti   Si
     8    16
Direct
 -0.0008347379566667  0.0000000000000000 -0.0000000000000000
  0.7508347379566667  0.7500000000000000  0.2500000000000000
 -0.0008347379566667  0.5000000000000000  0.5000000000000000
  0.7508347379566667  0.2500000000000000  0.7500000000000000
  0.4991652620433333  0.0000000000000000  0.5000000000000000
  0.2508347379566667  0.7500000000000000  0.7500000000000000
  0.4991652620433333  0.5000000000000000 -0.0000000000000000
  0.2508347379566667  0.2500000000000000  0.2500000000000000
 -0.0007005321063423  0.3366448103838832 -0.0001465644209980
 -0.0007005321063423  0.6633552196161191  0.0001465644209980
  0.7507005321063425  0.0866447953838785  0.2498534355790021
  0.7507005321063425  0.4133551896161168  0.2501465644209979
 -0.0007005321063423  0.8366447803838809  0.4998534355790021
 -0.0007005321063423  0.1633552046161215  0.5001465644209980
  0.7507005321063425  0.5866447803838809  0.7498534355790020
  0.7507005321063425  0.9133552196161191  0.7501465644209980
  0.4992994678936577  0.3366448103838832  0.4998534355790021
  0.4992994678936577  0.6633552196161191  0.5001465644209980
  0.2507005321063423  0.0866447953838785  0.7498534355790020
  0.2507005321063423  0.4133551896161168  0.7501465644209980
  0.4992994678936577  0.8366447803838809 -0.0001465644209980
  0.4992994678936577  0.1633552046161215  0.0001465644209980
  0.2507005321063423  0.5866447803838809  0.2498534355790021
  0.2507005321063423  0.9133552196161191  0.2501465644209979

  0.00000000E+00  0.00000000E+00  0.00000000E+00
  0.00000000E+00  0.00000000E+00  0.00000000E+00
  0.00000000E+00  0.00000000E+00  0.00000000E+00
  0.00000000E+00  0.00000000E+00  0.00000000E+00
  0.00000000E+00  0.00000000E+00  0.00000000E+00
  0.00000000E+00  0.00000000E+00  0.00000000E+00
  0.00000000E+00  0.00000000E+00  0.00000000E+00
  0.00000000E+00  0.00000000E+00  0.00000000E+00
  0.00000000E+00  0.00000000E+00  0.00000000E+00
  0.00000000E+00  0.00000000E+00  0.00000000E+00
  0.00000000E+00  0.00000000E+00  0.00000000E+00
  0.00000000E+00  0.00000000E+00  0.00000000E+00
  0.00000000E+00  0.00000000E+00  0.00000000E+00
  0.00000000E+00  0.00000000E+00  0.00000000E+00
  0.00000000E+00  0.00000000E+00  0.00000000E+00
  0.00000000E+00  0.00000000E+00  0.00000000E+00
  0.00000000E+00  0.00000000E+00  0.00000000E+00
  0.00000000E+00  0.00000000E+00  0.00000000E+00
  0.00000000E+00  0.00000000E+00  0.00000000E+00
  0.00000000E+00  0.00000000E+00  0.00000000E+00
  0.00000000E+00  0.00000000E+00  0.00000000E+00
  0.00000000E+00  0.00000000E+00  0.00000000E+00
  0.00000000E+00  0.00000000E+00  0.00000000E+00
  0.00000000E+00  0.00000000E+00  0.00000000E+00
