TiSi2                                   
   1.0000000000000000     
     4.7866994087285679    0.0000000000000000    0.0000000000000000
     0.0000000000000000    8.2371732403907227   -0.0413928303537222
     0.0000000000000000   -0.0428262549953516    8.5652509990703241
   Ti   Si
     8    16
Direct
  0.0008067396028589  0.0000000000000000  0.0000000000000000
  0.7491932603971410  0.7500000000000000  0.2500000000000000
  0.0008067396028589  0.5000000000000000  0.5000000000000000
  0.7491932603971410  0.2500000000000000  0.7500000000000000
  0.5008067396028590  0.0000000000000000  0.5000000000000000
  0.2491932603971412  0.7500000000000000  0.7500000000000000
  0.5008067396028590  0.5000000000000000  0.0000000000000000
  0.2491932603971412  0.2500000000000000  0.2500000000000000
  0.0007249800142088  0.3368060321850118  0.0001754130254112
  0.0007249800142088  0.6631939978149908 -0.0001754130254112
  0.7492750199857910  0.0868060171850070  0.2501754130254111
  0.7492750199857910  0.4131939678149882  0.2498245869745889
  0.0007249800142088  0.8368060021850092  0.5001754130254112
  0.0007249800142088  0.1631939828149931  0.4998245869745889
  0.7492750199857910  0.5868060021850092  0.7501754130254112
  0.7492750199857910  0.9131939978149908  0.7498245869745888
  0.5007249800142090  0.3368060321850118  0.5001754130254112
  0.5007249800142090  0.6631939978149908  0.4998245869745889
  0.2492750199857912  0.0868060171850070  0.7501754130254112
  0.2492750199857912  0.4131939678149882  0.7498245869745888
  0.5007249800142090  0.8368060021850092  0.0001754130254112
  0.5007249800142090  0.1631939828149931 -0.0001754130254112
  0.2492750199857912  0.5868060021850092  0.2501754130254111
  0.2492750199857912  0.9131939978149908  0.2498245869745889

  0.00000000E+00  0.00000000E+00  0.00000000E+00
  0.00000000E+00  0.00000000E+00  0.00000000E+00
  0.00000000E+00  0.00000000E+00  0.00000000E+00
  0.00000000E+00  0.00000000E+00  0.00000000E+00
  0.00000000E+00  0.00000000E+00  0.00000000E+00
  0.00000000E+00  0.00000000E+00  0.00000000E+00
  0.00000000E+00  0.00000000E+00  0.00000000E+00
  0.00000000E+00  0.00000000E+00  0.00000000E+00
  0.00000000E+00  0.00000000E+00  0.00000000E+00
  0.00000000E+00  0.00000000E+00  0.00000000E+00
  0.00000000E+00  0.00000000E+00  0.00000000E+00
  0.00000000E+00  0.00000000E+00  0.00000000E+00
  0.00000000E+00  0.00000000E+00  0.00000000E+00
  0.00000000E+00  0.00000000E+00  0.00000000E+00
  0.00000000E+00  0.00000000E+00  0.00000000E+00
  0.00000000E+00  0.00000000E+00  0.00000000E+00
  0.00000000E+00  0.00000000E+00  0.00000000E+00
  0.00000000E+00  0.00000000E+00  0.00000000E+00
  0.00000000E+00  0.00000000E+00  0.00000000E+00
  0.00000000E+00  0.00000000E+00  0.00000000E+00
  0.00000000E+00  0.00000000E+00  0.00000000E+00
  0.00000000E+00  0.00000000E+00  0.00000000E+00
  0.00000000E+00  0.00000000E+00  0.00000000E+00
  0.00000000E+00  0.00000000E+00  0.00000000E+00
