AlCu                                    
   1.0000000000000000     
    12.1196876807953995    0.0000000000000000   -0.1126297371325474
     0.0000000000000000    4.1047318575138929    0.0000000000000000
    -4.0305599948861719    0.0000000000000000    5.7245953757900505
   Al   Cu
    10    10
Direct
  0.5000000000000000 -0.0000000000000000  0.5000000000000000
  0.1558273704303833  0.0000000000000000  0.4620484329837103
  0.8441726145696119  0.0000000000000000  0.5379515380162906
  0.8794787423480459  0.5000000000000000  0.9989394789752922
  0.1205212506519502  0.5000000000000000  0.0010604970247058
 -0.0000000000000000  0.5000000000000000  0.5000000000000000
  0.6558273854303881  0.5000000000000000  0.4620484329837103
  0.3441726445696144  0.5000000000000000  0.5379515380162906
  0.3794787423480528 -0.0000000000000000  0.9989394789752922
  0.6205212576519541 -0.0000000000000000  0.0010604970247058
 -0.0000000000000000 -0.0000000000000000 -0.0000000000000000
  0.2569851886300121 -0.0000000000000000  0.2423680047543393
  0.7430147813699927  0.0000000000000000  0.7576319802456631
  0.1099052669173497  0.0000000000000000  0.7728272751889073
  0.8900947480826480 -0.0000000000000000  0.2271726948110974
  0.5000000000000000  0.5000000000000000 -0.0000000000000000
  0.7569852186300073  0.5000000000000000  0.2423680047543393
  0.2430148113699880  0.5000000000000000  0.7576319802456631
  0.6099052519173520  0.5000000000000000  0.7728272751889073
  0.3900947480826480  0.5000000000000000  0.2271726948110974

  0.00000000E+00  0.00000000E+00  0.00000000E+00
  0.00000000E+00  0.00000000E+00  0.00000000E+00
  0.00000000E+00  0.00000000E+00  0.00000000E+00
  0.00000000E+00  0.00000000E+00  0.00000000E+00
  0.00000000E+00  0.00000000E+00  0.00000000E+00
  0.00000000E+00  0.00000000E+00  0.00000000E+00
  0.00000000E+00  0.00000000E+00  0.00000000E+00
  0.00000000E+00  0.00000000E+00  0.00000000E+00
  0.00000000E+00  0.00000000E+00  0.00000000E+00
  0.00000000E+00  0.00000000E+00  0.00000000E+00
  0.00000000E+00  0.00000000E+00  0.00000000E+00
  0.00000000E+00  0.00000000E+00  0.00000000E+00
  0.00000000E+00  0.00000000E+00  0.00000000E+00
  0.00000000E+00  0.00000000E+00  0.00000000E+00
  0.00000000E+00  0.00000000E+00  0.00000000E+00
  0.00000000E+00  0.00000000E+00  0.00000000E+00
  0.00000000E+00  0.00000000E+00  0.00000000E+00
  0.00000000E+00  0.00000000E+00  0.00000000E+00
  0.00000000E+00  0.00000000E+00  0.00000000E+00
  0.00000000E+00  0.00000000E+00  0.00000000E+00
