AlCu                                    
   1.0000000000000000     
    12.1196876807953995    0.0000000000000000   -0.1126297371325474
     0.0000000000000000    4.1047318575138929    0.0000000000000000
    -4.0305599948861719    0.0000000000000000    5.7245953757900505
   Al   Cu
    10    10
Direct
  0.5000000000000000 -0.0000000000000000  0.5000000000000000
  0.1559649847255154 -0.0000000000000000  0.4624137301998267
  0.8440350002744796  0.0000000000000000  0.5375862408001743
  0.8793050633355871  0.5000000000000000  0.9986447094159774
  0.1206949296644087  0.5000000000000000  0.0013552665840207
 -0.0000000000000000  0.5000000000000000  0.5000000000000000
  0.6559649997255204  0.5000000000000000  0.4624137301998267
  0.3440350302744822  0.5000000000000000  0.5375862408001743
  0.3793050633355942  0.0000000000000000  0.9986447094159774
  0.6206949366644129  0.0000000000000000  0.0013552665840207
 -0.0000000000000000 -0.0000000000000000 -0.0000000000000000
  0.2569242787216298 -0.0000000000000000  0.2423715428166277
  0.7430756912783749  0.0000000000000000  0.7576284421833746
  0.1095050589358282 -0.0000000000000000  0.7722895930146999
  0.8904949560641694 -0.0000000000000000  0.2277103769853047
  0.5000000000000000  0.5000000000000000 -0.0000000000000000
  0.7569243087216251  0.5000000000000000  0.2423715428166277
  0.2430757212783702  0.5000000000000000  0.7576284421833746
  0.6095050439358306  0.5000000000000000  0.7722895930146999
  0.3904949560641696  0.5000000000000000  0.2277103769853047

  0.00000000E+00  0.00000000E+00  0.00000000E+00
  0.00000000E+00  0.00000000E+00  0.00000000E+00
  0.00000000E+00  0.00000000E+00  0.00000000E+00
  0.00000000E+00  0.00000000E+00  0.00000000E+00
  0.00000000E+00  0.00000000E+00  0.00000000E+00
  0.00000000E+00  0.00000000E+00  0.00000000E+00
  0.00000000E+00  0.00000000E+00  0.00000000E+00
  0.00000000E+00  0.00000000E+00  0.00000000E+00
  0.00000000E+00  0.00000000E+00  0.00000000E+00
  0.00000000E+00  0.00000000E+00  0.00000000E+00
  0.00000000E+00  0.00000000E+00  0.00000000E+00
  0.00000000E+00  0.00000000E+00  0.00000000E+00
  0.00000000E+00  0.00000000E+00  0.00000000E+00
  0.00000000E+00  0.00000000E+00  0.00000000E+00
  0.00000000E+00  0.00000000E+00  0.00000000E+00
  0.00000000E+00  0.00000000E+00  0.00000000E+00
  0.00000000E+00  0.00000000E+00  0.00000000E+00
  0.00000000E+00  0.00000000E+00  0.00000000E+00
  0.00000000E+00  0.00000000E+00  0.00000000E+00
  0.00000000E+00  0.00000000E+00  0.00000000E+00
