Mg                                      
   1.0000000000000000     
     6.3428845696299483   -0.0000000257742783    0.0000000001288714
    -3.1714458882420402    5.5485896494546969   -0.0277429482472735
     0.0000000000000000   -0.0514898644877541   10.2979728975508227
   Mg
    16
Direct
  0.1671426145238291  0.3342857350476575  0.1250006107911529
  0.1671426145238291  0.3342857350476575  0.6250006107911529
  0.1671426145238291  0.8342857350476575  0.1250006107911529
  0.1671426145238291  0.8342857350476575  0.6250006107911529
  0.6671426295238267  0.3342857350476575  0.1250006107911529
  0.6671426295238267  0.3342857350476575  0.6250006107911529
  0.6671426295238267  0.8342857350476575  0.1250006107911529
  0.6671426295238267  0.8342857350476575  0.6250006107911529
  0.3328573704761732  0.1657142499523448  0.3749993892088471
  0.3328573704761732  0.1657142499523448  0.8749993892088471
  0.3328573704761732  0.6657142649523425  0.3749993892088471
  0.3328573704761732  0.6657142649523425  0.8749993892088471
  0.8328573704761733  0.1657142499523448  0.3749993892088471
  0.8328573704761733  0.1657142499523448  0.8749993892088471
  0.8328573704761733  0.6657142649523425  0.3749993892088471
  0.8328573704761733  0.6657142649523425  0.8749993892088471

  0.00000000E+00  0.00000000E+00  0.00000000E+00
  0.00000000E+00  0.00000000E+00  0.00000000E+00
  0.00000000E+00  0.00000000E+00  0.00000000E+00
  0.00000000E+00  0.00000000E+00  0.00000000E+00
  0.00000000E+00  0.00000000E+00  0.00000000E+00
  0.00000000E+00  0.00000000E+00  0.00000000E+00
  0.00000000E+00  0.00000000E+00  0.00000000E+00
  0.00000000E+00  0.00000000E+00  0.00000000E+00
  0.00000000E+00  0.00000000E+00  0.00000000E+00
  0.00000000E+00  0.00000000E+00  0.00000000E+00
  0.00000000E+00  0.00000000E+00  0.00000000E+00
  0.00000000E+00  0.00000000E+00  0.00000000E+00
  0.00000000E+00  0.00000000E+00  0.00000000E+00
  0.00000000E+00  0.00000000E+00  0.00000000E+00
  0.00000000E+00  0.00000000E+00  0.00000000E+00
  0.00000000E+00  0.00000000E+00  0.00000000E+00
