AlCu                                    
   1.0000000000000000     
    12.1197733607601492    0.0000000000000000    0.0085679964750541
     0.0000000000000000    4.1047318575138929    0.0000000000000000
    -3.9737114122694983    0.0000000000000000    5.6848582616673555
   Al   Cu
    10    10
Direct
  0.5000000000000000  0.0000000000000000  0.5000000000000000
  0.1558736600886093  0.0000000000000000  0.4613737386787022
  0.8441263249113860  0.0000000000000000  0.5386262323212989
  0.8780555927692006  0.5000000000000000  0.9954133443057955
  0.1219444002307952  0.5000000000000000  0.0045866316942025
  0.0000000000000000  0.5000000000000000  0.5000000000000000
  0.6558736750886140  0.5000000000000000  0.4613737386787022
  0.3441263549113884  0.5000000000000000  0.5386262323212989
  0.3780555927692077  0.0000000000000000  0.9954133443057955
  0.6219444072307994  0.0000000000000000  0.0045866316942025
  0.0000000000000000  0.0000000000000000  0.0000000000000000
  0.2580514513749392  0.0000000000000000  0.2417288636901844
  0.7419485186250654  0.0000000000000000  0.7582711213098179
  0.1086638713364678  0.0000000000000000  0.7716789361071150
  0.8913361436635299  0.0000000000000000  0.2283210338928896
  0.5000000000000000  0.5000000000000000  0.0000000000000000
  0.7580514813749346  0.5000000000000000  0.2417288636901844
  0.2419485486250608  0.5000000000000000  0.7582711213098179
  0.6086638563364701  0.5000000000000000  0.7716789361071150
  0.3913361436635299  0.5000000000000000  0.2283210338928896

  0.00000000E+00  0.00000000E+00  0.00000000E+00
  0.00000000E+00  0.00000000E+00  0.00000000E+00
  0.00000000E+00  0.00000000E+00  0.00000000E+00
  0.00000000E+00  0.00000000E+00  0.00000000E+00
  0.00000000E+00  0.00000000E+00  0.00000000E+00
  0.00000000E+00  0.00000000E+00  0.00000000E+00
  0.00000000E+00  0.00000000E+00  0.00000000E+00
  0.00000000E+00  0.00000000E+00  0.00000000E+00
  0.00000000E+00  0.00000000E+00  0.00000000E+00
  0.00000000E+00  0.00000000E+00  0.00000000E+00
  0.00000000E+00  0.00000000E+00  0.00000000E+00
  0.00000000E+00  0.00000000E+00  0.00000000E+00
  0.00000000E+00  0.00000000E+00  0.00000000E+00
  0.00000000E+00  0.00000000E+00  0.00000000E+00
  0.00000000E+00  0.00000000E+00  0.00000000E+00
  0.00000000E+00  0.00000000E+00  0.00000000E+00
  0.00000000E+00  0.00000000E+00  0.00000000E+00
  0.00000000E+00  0.00000000E+00  0.00000000E+00
  0.00000000E+00  0.00000000E+00  0.00000000E+00
  0.00000000E+00  0.00000000E+00  0.00000000E+00
