AlCu                                    
   1.0000000000000000     
    12.1197733607601492    0.0000000000000000    0.0085679964750541
     0.0000000000000000    4.1047318575138929    0.0000000000000000
    -3.9737114122694983    0.0000000000000000    5.6848582616673555
   Al   Cu
    10    10
Direct
  0.5000000000000000  0.0000000000000000  0.5000000000000000
  0.1558736600886112 -0.0000000000000000  0.4613737386787006
  0.8441263249113841  0.0000000000000000  0.5386262323213007
  0.8780555927692042  0.5000000000000000  0.9954133443057988
  0.1219444002307987  0.5000000000000000  0.0045866316941992
 -0.0000000000000000  0.5000000000000000  0.5000000000000000
  0.6558736750886159  0.5000000000000000  0.4613737386787006
  0.3441263549113864  0.5000000000000000  0.5386262323213007
  0.3780555927692043  0.0000000000000000  0.9954133443057988
  0.6219444072307958 -0.0000000000000000  0.0045866316941992
 -0.0000000000000000  0.0000000000000000 -0.0000000000000000
  0.2580514513749374 -0.0000000000000000  0.2417288636901818
  0.7419485186250671  0.0000000000000000  0.7582711213098207
  0.1086638713364689 -0.0000000000000000  0.7716789361071174
  0.8913361436635288 -0.0000000000000000  0.2283210338928870
  0.5000000000000000  0.5000000000000000 -0.0000000000000000
  0.7580514813749329  0.5000000000000000  0.2417288636901818
  0.2419485486250625  0.5000000000000000  0.7582711213098207
  0.6086638563364712  0.5000000000000000  0.7716789361071174
  0.3913361436635286  0.5000000000000000  0.2283210338928870
