TiSi2                                   
   1.0000000000000000     
     4.7626456428555599    0.0000000000000000    0.0000000000000000
     0.0000000000000000    8.1957804100370009   -0.0827856607074444
     0.0000000000000000   -0.0856525099907032    8.5652509990703241
   Ti   Si
     8    16
Direct
  0.0016333412171893 -0.0000000000000000  0.0000000000000000
  0.7483666587828107  0.7500000000000000  0.2500000000000000
  0.0016333412171893  0.5000000000000000  0.5000000000000000
  0.7483666587828107  0.2500000000000000  0.7500000000000000
  0.5016333412171893 -0.0000000000000000  0.5000000000000000
  0.2483666587828106  0.7500000000000000  0.7500000000000000
  0.5016333412171893  0.5000000000000000  0.0000000000000000
  0.2483666587828106  0.2500000000000000  0.2500000000000000
  0.0014810777098879  0.3368936253448384  0.0003417488536086
  0.0014810777098879  0.6631064046551641 -0.0003417488536086
  0.7485189222901120  0.0868936103448336  0.2503417488536085
  0.7485189222901120  0.4131063746551616  0.2496582511463914
  0.0014810777098879  0.8368935953448359  0.5003417488536086
  0.0014810777098879  0.1631063896551664  0.4996582511463915
  0.7485189222901120  0.5868935953448359  0.7503417488536086
  0.7485189222901120  0.9131064046551641  0.7496582511463914
  0.5014810777098880  0.3368936253448384  0.5003417488536086
  0.5014810777098880  0.6631064046551641  0.4996582511463915
  0.2485189222901121  0.0868936103448336  0.7503417488536086
  0.2485189222901121  0.4131063746551616  0.7496582511463914
  0.5014810777098880  0.8368935953448359  0.0003417488536086
  0.5014810777098880  0.1631063896551664 -0.0003417488536086
  0.2485189222901121  0.5868935953448359  0.2503417488536085
  0.2485189222901121  0.9131064046551641  0.2496582511463914

  0.00000000E+00  0.00000000E+00  0.00000000E+00
  0.00000000E+00  0.00000000E+00  0.00000000E+00
  0.00000000E+00  0.00000000E+00  0.00000000E+00
  0.00000000E+00  0.00000000E+00  0.00000000E+00
  0.00000000E+00  0.00000000E+00  0.00000000E+00
  0.00000000E+00  0.00000000E+00  0.00000000E+00
  0.00000000E+00  0.00000000E+00  0.00000000E+00
  0.00000000E+00  0.00000000E+00  0.00000000E+00
  0.00000000E+00  0.00000000E+00  0.00000000E+00
  0.00000000E+00  0.00000000E+00  0.00000000E+00
  0.00000000E+00  0.00000000E+00  0.00000000E+00
  0.00000000E+00  0.00000000E+00  0.00000000E+00
  0.00000000E+00  0.00000000E+00  0.00000000E+00
  0.00000000E+00  0.00000000E+00  0.00000000E+00
  0.00000000E+00  0.00000000E+00  0.00000000E+00
  0.00000000E+00  0.00000000E+00  0.00000000E+00
  0.00000000E+00  0.00000000E+00  0.00000000E+00
  0.00000000E+00  0.00000000E+00  0.00000000E+00
  0.00000000E+00  0.00000000E+00  0.00000000E+00
  0.00000000E+00  0.00000000E+00  0.00000000E+00
  0.00000000E+00  0.00000000E+00  0.00000000E+00
  0.00000000E+00  0.00000000E+00  0.00000000E+00
  0.00000000E+00  0.00000000E+00  0.00000000E+00
  0.00000000E+00  0.00000000E+00  0.00000000E+00
