Al2O3_R-3cH                             
   1.0000000000000000     
     4.8027765869102410   -0.0240138829351414    0.0000000000000000
    -2.4221849261712225    4.1713334744833448    0.0000000000000000
     0.0000000000000000    0.0000000000000000   12.9716002257326330
   Al   O 
    12    18
Direct
  0.0005411615659560 -0.0003811998734648  0.3525223064350917
 -0.0005411615659560  0.0003811998734648  0.6474776635649127
 -0.0009307846404900 -0.0003730164627929  0.1474780345834164
  0.0009307846404900  0.0003730164627929  0.8525219954165789
  0.6672078485659588  0.3329521431265348  0.6858556494350916
  0.6661255254340469  0.3337145428734645  0.9808110365649148
  0.6657359023595126  0.3329603265372068  0.4808113775834231
  0.6675974716404931  0.3337063594627924  0.1858552494165819
  0.3338745045659556  0.6662854871265379  0.0191889634350853
  0.3327921814340436  0.6670478868734678  0.3141443505649086
  0.3324025583595097  0.6662936705372099  0.8141446915834168
  0.3342641276404896  0.6670397034627958  0.5191886224165768
  0.3061546357763161  0.0004343757726020  0.2501779604327724
  0.6938453642236837 -0.0004343757726020  0.7498220395672277
  0.0002102909342308  0.3058079041541530  0.2499091734681870
 -0.0002102909342308  0.6941920958458471  0.7500908265318131
  0.6937025595364672  0.6939266738651435  0.2499128757277836
  0.3062974404635328  0.3060733261348568  0.7500871242722164
  0.9728213227763192  0.3337677187726016  0.5835112734327694
  0.3605120212236843  0.3328989672273976  0.0831553755672303
  0.6668769779342338  0.6391412181541537  0.5832424864681840
  0.6664563960657719  0.0275254298458494  0.0834241625318156
  0.3603692165364676  0.0272600078651456  0.5832461887277808
  0.9729641274635357  0.6394066401348573  0.0834204602722190
  0.6394879497763171  0.6671010627726047  0.9168446474327752
  0.0271786982236863  0.6662323112274010  0.4164886965672280
  0.3335436339342303  0.9724745911541558  0.9165758604681897
  0.3331230520657689  0.3608587528458474  0.4167574835318133
  0.0270358935364696  0.3605933308651436  0.9165795627277865
  0.6396307544635336  0.9727400131348594  0.4167537812722167

  0.00000000E+00  0.00000000E+00  0.00000000E+00
  0.00000000E+00  0.00000000E+00  0.00000000E+00
  0.00000000E+00  0.00000000E+00  0.00000000E+00
  0.00000000E+00  0.00000000E+00  0.00000000E+00
  0.00000000E+00  0.00000000E+00  0.00000000E+00
  0.00000000E+00  0.00000000E+00  0.00000000E+00
  0.00000000E+00  0.00000000E+00  0.00000000E+00
  0.00000000E+00  0.00000000E+00  0.00000000E+00
  0.00000000E+00  0.00000000E+00  0.00000000E+00
  0.00000000E+00  0.00000000E+00  0.00000000E+00
  0.00000000E+00  0.00000000E+00  0.00000000E+00
  0.00000000E+00  0.00000000E+00  0.00000000E+00
  0.00000000E+00  0.00000000E+00  0.00000000E+00
  0.00000000E+00  0.00000000E+00  0.00000000E+00
  0.00000000E+00  0.00000000E+00  0.00000000E+00
  0.00000000E+00  0.00000000E+00  0.00000000E+00
  0.00000000E+00  0.00000000E+00  0.00000000E+00
  0.00000000E+00  0.00000000E+00  0.00000000E+00
  0.00000000E+00  0.00000000E+00  0.00000000E+00
  0.00000000E+00  0.00000000E+00  0.00000000E+00
  0.00000000E+00  0.00000000E+00  0.00000000E+00
  0.00000000E+00  0.00000000E+00  0.00000000E+00
  0.00000000E+00  0.00000000E+00  0.00000000E+00
  0.00000000E+00  0.00000000E+00  0.00000000E+00
  0.00000000E+00  0.00000000E+00  0.00000000E+00
  0.00000000E+00  0.00000000E+00  0.00000000E+00
  0.00000000E+00  0.00000000E+00  0.00000000E+00
  0.00000000E+00  0.00000000E+00  0.00000000E+00
  0.00000000E+00  0.00000000E+00  0.00000000E+00
  0.00000000E+00  0.00000000E+00  0.00000000E+00
