Mg                  
   1.000000000000000
   6.4069541107373214       -2.5774278300000001E-008   0.0000000000000000     
  -3.2034806951939800        5.5485896494546969        0.0000000000000000     
   0.0000000000000000        0.0000000000000000        10.092013439599807     
   Mg                                                                           
    16                                                                          
Direct                                                                          
  0.16666649300000100       0.33333349200000129       0.12500000000000000     
  0.16666649300000100       0.33333349200000129       0.62500000000000000     
  0.16666649300000100       0.83333349200000129       0.12500000000000000     
  0.16666649300000100       0.83333349200000129       0.62500000000000000     
  0.66666650799999871       0.33333349200000129       0.12500000000000000     
  0.66666650799999871       0.33333349200000129       0.62500000000000000     
  0.66666650799999871       0.83333349200000129       0.12500000000000000     
  0.66666650799999871       0.83333349200000129       0.62500000000000000     
  0.33333349200000129       0.16666649300000100       0.37500000000000000     
  0.33333349200000129       0.16666649300000100       0.87500000000000000     
  0.33333349200000129       0.66666650799999871       0.37500000000000000     
  0.33333349200000129       0.66666650799999871       0.87500000000000000     
  0.83333349200000129       0.16666649300000100       0.37500000000000000     
  0.83333349200000129       0.16666649300000100       0.87500000000000000     
  0.83333349200000129       0.66666650799999871       0.37500000000000000     
  0.83333349200000129       0.66666650799999871       0.87500000000000000     
